p cnf 1216 3874
-34 31 0
-34 32 0
34 -31 -32 0
-35 1 0
-35 34 0
35 -1 -34 0
-36 20 0
-36 32 0
36 -20 -32 0
-37 30 0
-37 31 0
37 -30 -31 0
-38 36 0
-38 37 0
38 -36 -37 0
-39 -37 -36 0
-39 37 36 0
39 -37 36 0
39 37 -36 0
-40 2 0
-40 39 0
40 -2 -39 0
-41 -40 -35 0
-41 40 35 0
41 -40 35 0
41 40 -35 0
-42 2 0
-42 34 0
42 -2 -34 0
-43 3 0
-43 39 0
43 -3 -39 0
-44 42 0
-44 43 0
44 -42 -43 0
-45 -43 -42 0
-45 43 42 0
45 -43 42 0
45 43 -42 0
-46 3 0
-46 34 0
46 -3 -34 0
-47 4 0
-47 39 0
47 -4 -39 0
-48 46 0
-48 47 0
48 -46 -47 0
-49 -47 -46 0
-49 47 46 0
49 -47 46 0
49 47 -46 0
-50 4 0
-50 34 0
50 -4 -34 0
-51 5 0
-51 39 0
51 -5 -39 0
-52 50 0
-52 51 0
52 -50 -51 0
-53 -51 -50 0
-53 51 50 0
53 -51 50 0
53 51 -50 0
-54 5 0
-54 34 0
54 -5 -34 0
-55 6 0
-55 39 0
55 -6 -39 0
-56 54 0
-56 55 0
56 -54 -55 0
-57 -55 -54 0
-57 55 54 0
57 -55 54 0
57 55 -54 0
-58 6 0
-58 34 0
58 -6 -34 0
-59 7 0
-59 39 0
59 -7 -39 0
-60 58 0
-60 59 0
60 -58 -59 0
-61 -59 -58 0
-61 59 58 0
61 -59 58 0
61 59 -58 0
-62 7 0
-62 34 0
62 -7 -34 0
-63 8 0
-63 39 0
63 -8 -39 0
-64 62 0
-64 63 0
64 -62 -63 0
-65 -63 -62 0
-65 63 62 0
65 -63 62 0
65 63 -62 0
-66 8 0
-66 34 0
66 -8 -34 0
-67 9 0
-67 39 0
67 -9 -39 0
-68 66 0
-68 67 0
68 -66 -67 0
-69 -67 -66 0
-69 67 66 0
69 -67 66 0
69 67 -66 0
-70 9 0
-70 34 0
70 -9 -34 0
-71 10 0
-71 39 0
71 -10 -39 0
-72 70 0
-72 71 0
72 -70 -71 0
-73 -71 -70 0
-73 71 70 0
73 -71 70 0
73 71 -70 0
-74 10 0
-74 34 0
74 -10 -34 0
-75 33 0
-75 39 0
75 -33 -39 0
-76 74 0
-76 75 0
76 -74 -75 0
-77 73 0
-77 76 0
77 -73 -76 0
-78 -72 0
-78 -77 0
78 72 77 0
-79 69 0
-79 -78 0
79 -69 78 0
-80 -68 0
-80 -79 0
80 68 79 0
-81 65 0
-81 -80 0
81 -65 80 0
-82 -64 0
-82 -81 0
82 64 81 0
-83 61 0
-83 -82 0
83 -61 82 0
-84 -60 0
-84 -83 0
84 60 83 0
-85 57 0
-85 -84 0
85 -57 84 0
-86 -56 0
-86 -85 0
86 56 85 0
-87 53 0
-87 -86 0
87 -53 86 0
-88 -52 0
-88 -87 0
88 52 87 0
-89 49 0
-89 -88 0
89 -49 88 0
-90 -48 0
-90 -89 0
90 48 89 0
-91 45 0
-91 -90 0
91 -45 90 0
-92 -44 0
-92 -91 0
92 44 91 0
-93 92 -41 0
-93 -92 41 0
93 92 41 0
93 -92 -41 0
-94 19 0
-94 32 0
94 -19 -32 0
-95 20 0
-95 30 0
95 -20 -30 0
-96 94 0
-96 95 0
96 -94 -95 0
-97 -95 -94 0
-97 95 94 0
97 -95 94 0
97 95 -94 0
-98 38 0
-98 97 0
98 -38 -97 0
-99 -97 -38 0
-99 97 38 0
99 -97 38 0
99 97 -38 0
-100 29 0
-100 31 0
100 -29 -31 0
-101 99 0
-101 100 0
101 -99 -100 0
-102 -100 -99 0
-102 100 99 0
102 -100 99 0
102 100 -99 0
-103 3 0
-103 102 0
103 -3 -102 0
-104 -103 -93 0
-104 103 93 0
104 -103 93 0
104 103 -93 0
-105 90 -45 0
-105 -90 45 0
105 90 45 0
105 -90 -45 0
-106 4 0
-106 102 0
106 -4 -102 0
-107 105 0
-107 106 0
107 -105 -106 0
-108 -106 -105 0
-108 106 105 0
108 -106 105 0
108 106 -105 0
-109 88 -49 0
-109 -88 49 0
109 88 49 0
109 -88 -49 0
-110 5 0
-110 102 0
110 -5 -102 0
-111 109 0
-111 110 0
111 -109 -110 0
-112 -110 -109 0
-112 110 109 0
112 -110 109 0
112 110 -109 0
-113 86 -53 0
-113 -86 53 0
113 86 53 0
113 -86 -53 0
-114 6 0
-114 102 0
114 -6 -102 0
-115 113 0
-115 114 0
115 -113 -114 0
-116 -114 -113 0
-116 114 113 0
116 -114 113 0
116 114 -113 0
-117 84 -57 0
-117 -84 57 0
117 84 57 0
117 -84 -57 0
-118 7 0
-118 102 0
118 -7 -102 0
-119 117 0
-119 118 0
119 -117 -118 0
-120 -118 -117 0
-120 118 117 0
120 -118 117 0
120 118 -117 0
-121 82 -61 0
-121 -82 61 0
121 82 61 0
121 -82 -61 0
-122 8 0
-122 102 0
122 -8 -102 0
-123 121 0
-123 122 0
123 -121 -122 0
-124 -122 -121 0
-124 122 121 0
124 -122 121 0
124 122 -121 0
-125 80 -65 0
-125 -80 65 0
125 80 65 0
125 -80 -65 0
-126 9 0
-126 102 0
126 -9 -102 0
-127 125 0
-127 126 0
127 -125 -126 0
-128 -126 -125 0
-128 126 125 0
128 -126 125 0
128 126 -125 0
-129 78 -69 0
-129 -78 69 0
129 78 69 0
129 -78 -69 0
-130 10 0
-130 102 0
130 -10 -102 0
-131 129 0
-131 130 0
131 -129 -130 0
-132 -130 -129 0
-132 130 129 0
132 -130 129 0
132 130 -129 0
-133 -76 -73 0
-133 76 73 0
133 -76 73 0
133 76 -73 0
-134 33 0
-134 102 0
134 -33 -102 0
-135 133 0
-135 134 0
135 -133 -134 0
-136 132 0
-136 135 0
136 -132 -135 0
-137 -131 0
-137 -136 0
137 131 136 0
-138 128 0
-138 -137 0
138 -128 137 0
-139 -127 0
-139 -138 0
139 127 138 0
-140 124 0
-140 -139 0
140 -124 139 0
-141 -123 0
-141 -140 0
141 123 140 0
-142 120 0
-142 -141 0
142 -120 141 0
-143 -119 0
-143 -142 0
143 119 142 0
-144 116 0
-144 -143 0
144 -116 143 0
-145 -115 0
-145 -144 0
145 115 144 0
-146 112 0
-146 -145 0
146 -112 145 0
-147 -111 0
-147 -146 0
147 111 146 0
-148 108 0
-148 -147 0
148 -108 147 0
-149 -107 0
-149 -148 0
149 107 148 0
-150 149 -104 0
-150 -149 104 0
150 149 104 0
150 -149 -104 0
-151 18 0
-151 32 0
151 -18 -32 0
-152 19 0
-152 30 0
152 -19 -30 0
-153 151 0
-153 152 0
153 -151 -152 0
-154 -152 -151 0
-154 152 151 0
154 -152 151 0
154 152 -151 0
-155 -96 0
-155 -98 0
155 96 98 0
-156 154 0
-156 -155 0
156 -154 155 0
-157 155 -154 0
-157 -155 154 0
157 155 154 0
157 -155 -154 0
-158 20 0
-158 29 0
158 -20 -29 0
-159 157 0
-159 158 0
159 -157 -158 0
-160 -158 -157 0
-160 158 157 0
160 -158 157 0
160 158 -157 0
-161 101 0
-161 160 0
161 -101 -160 0
-162 -160 -101 0
-162 160 101 0
162 -160 101 0
162 160 -101 0
-163 28 0
-163 31 0
163 -28 -31 0
-164 162 0
-164 163 0
164 -162 -163 0
-165 -163 -162 0
-165 163 162 0
165 -163 162 0
165 163 -162 0
-166 4 0
-166 165 0
166 -4 -165 0
-167 -166 -150 0
-167 166 150 0
167 -166 150 0
167 166 -150 0
-168 147 -108 0
-168 -147 108 0
168 147 108 0
168 -147 -108 0
-169 5 0
-169 165 0
169 -5 -165 0
-170 168 0
-170 169 0
170 -168 -169 0
-171 -169 -168 0
-171 169 168 0
171 -169 168 0
171 169 -168 0
-172 145 -112 0
-172 -145 112 0
172 145 112 0
172 -145 -112 0
-173 6 0
-173 165 0
173 -6 -165 0
-174 172 0
-174 173 0
174 -172 -173 0
-175 -173 -172 0
-175 173 172 0
175 -173 172 0
175 173 -172 0
-176 143 -116 0
-176 -143 116 0
176 143 116 0
176 -143 -116 0
-177 7 0
-177 165 0
177 -7 -165 0
-178 176 0
-178 177 0
178 -176 -177 0
-179 -177 -176 0
-179 177 176 0
179 -177 176 0
179 177 -176 0
-180 141 -120 0
-180 -141 120 0
180 141 120 0
180 -141 -120 0
-181 8 0
-181 165 0
181 -8 -165 0
-182 180 0
-182 181 0
182 -180 -181 0
-183 -181 -180 0
-183 181 180 0
183 -181 180 0
183 181 -180 0
-184 139 -124 0
-184 -139 124 0
184 139 124 0
184 -139 -124 0
-185 9 0
-185 165 0
185 -9 -165 0
-186 184 0
-186 185 0
186 -184 -185 0
-187 -185 -184 0
-187 185 184 0
187 -185 184 0
187 185 -184 0
-188 137 -128 0
-188 -137 128 0
188 137 128 0
188 -137 -128 0
-189 10 0
-189 165 0
189 -10 -165 0
-190 188 0
-190 189 0
190 -188 -189 0
-191 -189 -188 0
-191 189 188 0
191 -189 188 0
191 189 -188 0
-192 -135 -132 0
-192 135 132 0
192 -135 132 0
192 135 -132 0
-193 33 0
-193 165 0
193 -33 -165 0
-194 192 0
-194 193 0
194 -192 -193 0
-195 191 0
-195 194 0
195 -191 -194 0
-196 -190 0
-196 -195 0
196 190 195 0
-197 187 0
-197 -196 0
197 -187 196 0
-198 -186 0
-198 -197 0
198 186 197 0
-199 183 0
-199 -198 0
199 -183 198 0
-200 -182 0
-200 -199 0
200 182 199 0
-201 179 0
-201 -200 0
201 -179 200 0
-202 -178 0
-202 -201 0
202 178 201 0
-203 175 0
-203 -202 0
203 -175 202 0
-204 -174 0
-204 -203 0
204 174 203 0
-205 171 0
-205 -204 0
205 -171 204 0
-206 -170 0
-206 -205 0
206 170 205 0
-207 206 -167 0
-207 -206 167 0
207 206 167 0
207 -206 -167 0
-208 17 0
-208 32 0
208 -17 -32 0
-209 18 0
-209 30 0
209 -18 -30 0
-210 208 0
-210 209 0
210 -208 -209 0
-211 -209 -208 0
-211 209 208 0
211 -209 208 0
211 209 -208 0
-212 -153 0
-212 -156 0
212 153 156 0
-213 211 0
-213 -212 0
213 -211 212 0
-214 212 -211 0
-214 -212 211 0
214 212 211 0
214 -212 -211 0
-215 19 0
-215 29 0
215 -19 -29 0
-216 214 0
-216 215 0
216 -214 -215 0
-217 -215 -214 0
-217 215 214 0
217 -215 214 0
217 215 -214 0
-218 -159 0
-218 -161 0
218 159 161 0
-219 217 0
-219 -218 0
219 -217 218 0
-220 218 -217 0
-220 -218 217 0
220 218 217 0
220 -218 -217 0
-221 20 0
-221 28 0
221 -20 -28 0
-222 220 0
-222 221 0
222 -220 -221 0
-223 -221 -220 0
-223 221 220 0
223 -221 220 0
223 221 -220 0
-224 164 0
-224 223 0
224 -164 -223 0
-225 -223 -164 0
-225 223 164 0
225 -223 164 0
225 223 -164 0
-226 27 0
-226 31 0
226 -27 -31 0
-227 225 0
-227 226 0
227 -225 -226 0
-228 -226 -225 0
-228 226 225 0
228 -226 225 0
228 226 -225 0
-229 5 0
-229 228 0
229 -5 -228 0
-230 -229 -207 0
-230 229 207 0
230 -229 207 0
230 229 -207 0
-231 204 -171 0
-231 -204 171 0
231 204 171 0
231 -204 -171 0
-232 6 0
-232 228 0
232 -6 -228 0
-233 231 0
-233 232 0
233 -231 -232 0
-234 -232 -231 0
-234 232 231 0
234 -232 231 0
234 232 -231 0
-235 202 -175 0
-235 -202 175 0
235 202 175 0
235 -202 -175 0
-236 7 0
-236 228 0
236 -7 -228 0
-237 235 0
-237 236 0
237 -235 -236 0
-238 -236 -235 0
-238 236 235 0
238 -236 235 0
238 236 -235 0
-239 200 -179 0
-239 -200 179 0
239 200 179 0
239 -200 -179 0
-240 8 0
-240 228 0
240 -8 -228 0
-241 239 0
-241 240 0
241 -239 -240 0
-242 -240 -239 0
-242 240 239 0
242 -240 239 0
242 240 -239 0
-243 198 -183 0
-243 -198 183 0
243 198 183 0
243 -198 -183 0
-244 9 0
-244 228 0
244 -9 -228 0
-245 243 0
-245 244 0
245 -243 -244 0
-246 -244 -243 0
-246 244 243 0
246 -244 243 0
246 244 -243 0
-247 196 -187 0
-247 -196 187 0
247 196 187 0
247 -196 -187 0
-248 10 0
-248 228 0
248 -10 -228 0
-249 247 0
-249 248 0
249 -247 -248 0
-250 -248 -247 0
-250 248 247 0
250 -248 247 0
250 248 -247 0
-251 -194 -191 0
-251 194 191 0
251 -194 191 0
251 194 -191 0
-252 33 0
-252 228 0
252 -33 -228 0
-253 251 0
-253 252 0
253 -251 -252 0
-254 250 0
-254 253 0
254 -250 -253 0
-255 -249 0
-255 -254 0
255 249 254 0
-256 246 0
-256 -255 0
256 -246 255 0
-257 -245 0
-257 -256 0
257 245 256 0
-258 242 0
-258 -257 0
258 -242 257 0
-259 -241 0
-259 -258 0
259 241 258 0
-260 238 0
-260 -259 0
260 -238 259 0
-261 -237 0
-261 -260 0
261 237 260 0
-262 234 0
-262 -261 0
262 -234 261 0
-263 -233 0
-263 -262 0
263 233 262 0
-264 263 -230 0
-264 -263 230 0
264 263 230 0
264 -263 -230 0
-265 16 0
-265 32 0
265 -16 -32 0
-266 17 0
-266 30 0
266 -17 -30 0
-267 265 0
-267 266 0
267 -265 -266 0
-268 -266 -265 0
-268 266 265 0
268 -266 265 0
268 266 -265 0
-269 -210 0
-269 -213 0
269 210 213 0
-270 268 0
-270 -269 0
270 -268 269 0
-271 269 -268 0
-271 -269 268 0
271 269 268 0
271 -269 -268 0
-272 18 0
-272 29 0
272 -18 -29 0
-273 271 0
-273 272 0
273 -271 -272 0
-274 -272 -271 0
-274 272 271 0
274 -272 271 0
274 272 -271 0
-275 -216 0
-275 -219 0
275 216 219 0
-276 274 0
-276 -275 0
276 -274 275 0
-277 275 -274 0
-277 -275 274 0
277 275 274 0
277 -275 -274 0
-278 19 0
-278 28 0
278 -19 -28 0
-279 277 0
-279 278 0
279 -277 -278 0
-280 -278 -277 0
-280 278 277 0
280 -278 277 0
280 278 -277 0
-281 -222 0
-281 -224 0
281 222 224 0
-282 280 0
-282 -281 0
282 -280 281 0
-283 281 -280 0
-283 -281 280 0
283 281 280 0
283 -281 -280 0
-284 20 0
-284 27 0
284 -20 -27 0
-285 283 0
-285 284 0
285 -283 -284 0
-286 -284 -283 0
-286 284 283 0
286 -284 283 0
286 284 -283 0
-287 227 0
-287 286 0
287 -227 -286 0
-288 -286 -227 0
-288 286 227 0
288 -286 227 0
288 286 -227 0
-289 26 0
-289 31 0
289 -26 -31 0
-290 288 0
-290 289 0
290 -288 -289 0
-291 -289 -288 0
-291 289 288 0
291 -289 288 0
291 289 -288 0
-292 6 0
-292 291 0
292 -6 -291 0
-293 -292 -264 0
-293 292 264 0
293 -292 264 0
293 292 -264 0
-294 261 -234 0
-294 -261 234 0
294 261 234 0
294 -261 -234 0
-295 7 0
-295 291 0
295 -7 -291 0
-296 294 0
-296 295 0
296 -294 -295 0
-297 -295 -294 0
-297 295 294 0
297 -295 294 0
297 295 -294 0
-298 259 -238 0
-298 -259 238 0
298 259 238 0
298 -259 -238 0
-299 8 0
-299 291 0
299 -8 -291 0
-300 298 0
-300 299 0
300 -298 -299 0
-301 -299 -298 0
-301 299 298 0
301 -299 298 0
301 299 -298 0
-302 257 -242 0
-302 -257 242 0
302 257 242 0
302 -257 -242 0
-303 9 0
-303 291 0
303 -9 -291 0
-304 302 0
-304 303 0
304 -302 -303 0
-305 -303 -302 0
-305 303 302 0
305 -303 302 0
305 303 -302 0
-306 255 -246 0
-306 -255 246 0
306 255 246 0
306 -255 -246 0
-307 10 0
-307 291 0
307 -10 -291 0
-308 306 0
-308 307 0
308 -306 -307 0
-309 -307 -306 0
-309 307 306 0
309 -307 306 0
309 307 -306 0
-310 -253 -250 0
-310 253 250 0
310 -253 250 0
310 253 -250 0
-311 33 0
-311 291 0
311 -33 -291 0
-312 310 0
-312 311 0
312 -310 -311 0
-313 309 0
-313 312 0
313 -309 -312 0
-314 -308 0
-314 -313 0
314 308 313 0
-315 305 0
-315 -314 0
315 -305 314 0
-316 -304 0
-316 -315 0
316 304 315 0
-317 301 0
-317 -316 0
317 -301 316 0
-318 -300 0
-318 -317 0
318 300 317 0
-319 297 0
-319 -318 0
319 -297 318 0
-320 -296 0
-320 -319 0
320 296 319 0
-321 320 -293 0
-321 -320 293 0
321 320 293 0
321 -320 -293 0
-322 15 0
-322 32 0
322 -15 -32 0
-323 16 0
-323 30 0
323 -16 -30 0
-324 322 0
-324 323 0
324 -322 -323 0
-325 -323 -322 0
-325 323 322 0
325 -323 322 0
325 323 -322 0
-326 -267 0
-326 -270 0
326 267 270 0
-327 325 0
-327 -326 0
327 -325 326 0
-328 326 -325 0
-328 -326 325 0
328 326 325 0
328 -326 -325 0
-329 17 0
-329 29 0
329 -17 -29 0
-330 328 0
-330 329 0
330 -328 -329 0
-331 -329 -328 0
-331 329 328 0
331 -329 328 0
331 329 -328 0
-332 -273 0
-332 -276 0
332 273 276 0
-333 331 0
-333 -332 0
333 -331 332 0
-334 332 -331 0
-334 -332 331 0
334 332 331 0
334 -332 -331 0
-335 18 0
-335 28 0
335 -18 -28 0
-336 334 0
-336 335 0
336 -334 -335 0
-337 -335 -334 0
-337 335 334 0
337 -335 334 0
337 335 -334 0
-338 -279 0
-338 -282 0
338 279 282 0
-339 337 0
-339 -338 0
339 -337 338 0
-340 338 -337 0
-340 -338 337 0
340 338 337 0
340 -338 -337 0
-341 19 0
-341 27 0
341 -19 -27 0
-342 340 0
-342 341 0
342 -340 -341 0
-343 -341 -340 0
-343 341 340 0
343 -341 340 0
343 341 -340 0
-344 -285 0
-344 -287 0
344 285 287 0
-345 343 0
-345 -344 0
345 -343 344 0
-346 344 -343 0
-346 -344 343 0
346 344 343 0
346 -344 -343 0
-347 20 0
-347 26 0
347 -20 -26 0
-348 346 0
-348 347 0
348 -346 -347 0
-349 -347 -346 0
-349 347 346 0
349 -347 346 0
349 347 -346 0
-350 290 0
-350 349 0
350 -290 -349 0
-351 -349 -290 0
-351 349 290 0
351 -349 290 0
351 349 -290 0
-352 25 0
-352 31 0
352 -25 -31 0
-353 351 0
-353 352 0
353 -351 -352 0
-354 -352 -351 0
-354 352 351 0
354 -352 351 0
354 352 -351 0
-355 7 0
-355 354 0
355 -7 -354 0
-356 -355 -321 0
-356 355 321 0
356 -355 321 0
356 355 -321 0
-357 318 -297 0
-357 -318 297 0
357 318 297 0
357 -318 -297 0
-358 8 0
-358 354 0
358 -8 -354 0
-359 357 0
-359 358 0
359 -357 -358 0
-360 -358 -357 0
-360 358 357 0
360 -358 357 0
360 358 -357 0
-361 316 -301 0
-361 -316 301 0
361 316 301 0
361 -316 -301 0
-362 9 0
-362 354 0
362 -9 -354 0
-363 361 0
-363 362 0
363 -361 -362 0
-364 -362 -361 0
-364 362 361 0
364 -362 361 0
364 362 -361 0
-365 314 -305 0
-365 -314 305 0
365 314 305 0
365 -314 -305 0
-366 10 0
-366 354 0
366 -10 -354 0
-367 365 0
-367 366 0
367 -365 -366 0
-368 -366 -365 0
-368 366 365 0
368 -366 365 0
368 366 -365 0
-369 -312 -309 0
-369 312 309 0
369 -312 309 0
369 312 -309 0
-370 33 0
-370 354 0
370 -33 -354 0
-371 369 0
-371 370 0
371 -369 -370 0
-372 368 0
-372 371 0
372 -368 -371 0
-373 -367 0
-373 -372 0
373 367 372 0
-374 364 0
-374 -373 0
374 -364 373 0
-375 -363 0
-375 -374 0
375 363 374 0
-376 360 0
-376 -375 0
376 -360 375 0
-377 -359 0
-377 -376 0
377 359 376 0
-378 377 -356 0
-378 -377 356 0
378 377 356 0
378 -377 -356 0
-379 14 0
-379 32 0
379 -14 -32 0
-380 15 0
-380 30 0
380 -15 -30 0
-381 379 0
-381 380 0
381 -379 -380 0
-382 -380 -379 0
-382 380 379 0
382 -380 379 0
382 380 -379 0
-383 -324 0
-383 -327 0
383 324 327 0
-384 382 0
-384 -383 0
384 -382 383 0
-385 383 -382 0
-385 -383 382 0
385 383 382 0
385 -383 -382 0
-386 16 0
-386 29 0
386 -16 -29 0
-387 385 0
-387 386 0
387 -385 -386 0
-388 -386 -385 0
-388 386 385 0
388 -386 385 0
388 386 -385 0
-389 -330 0
-389 -333 0
389 330 333 0
-390 388 0
-390 -389 0
390 -388 389 0
-391 389 -388 0
-391 -389 388 0
391 389 388 0
391 -389 -388 0
-392 17 0
-392 28 0
392 -17 -28 0
-393 391 0
-393 392 0
393 -391 -392 0
-394 -392 -391 0
-394 392 391 0
394 -392 391 0
394 392 -391 0
-395 -336 0
-395 -339 0
395 336 339 0
-396 394 0
-396 -395 0
396 -394 395 0
-397 395 -394 0
-397 -395 394 0
397 395 394 0
397 -395 -394 0
-398 18 0
-398 27 0
398 -18 -27 0
-399 397 0
-399 398 0
399 -397 -398 0
-400 -398 -397 0
-400 398 397 0
400 -398 397 0
400 398 -397 0
-401 -342 0
-401 -345 0
401 342 345 0
-402 400 0
-402 -401 0
402 -400 401 0
-403 401 -400 0
-403 -401 400 0
403 401 400 0
403 -401 -400 0
-404 19 0
-404 26 0
404 -19 -26 0
-405 403 0
-405 404 0
405 -403 -404 0
-406 -404 -403 0
-406 404 403 0
406 -404 403 0
406 404 -403 0
-407 -348 0
-407 -350 0
407 348 350 0
-408 406 0
-408 -407 0
408 -406 407 0
-409 407 -406 0
-409 -407 406 0
409 407 406 0
409 -407 -406 0
-410 20 0
-410 25 0
410 -20 -25 0
-411 409 0
-411 410 0
411 -409 -410 0
-412 -410 -409 0
-412 410 409 0
412 -410 409 0
412 410 -409 0
-413 353 0
-413 412 0
413 -353 -412 0
-414 -412 -353 0
-414 412 353 0
414 -412 353 0
414 412 -353 0
-415 24 0
-415 31 0
415 -24 -31 0
-416 414 0
-416 415 0
416 -414 -415 0
-417 -415 -414 0
-417 415 414 0
417 -415 414 0
417 415 -414 0
-418 8 0
-418 417 0
418 -8 -417 0
-419 -418 -378 0
-419 418 378 0
419 -418 378 0
419 418 -378 0
-420 375 -360 0
-420 -375 360 0
420 375 360 0
420 -375 -360 0
-421 9 0
-421 417 0
421 -9 -417 0
-422 420 0
-422 421 0
422 -420 -421 0
-423 -421 -420 0
-423 421 420 0
423 -421 420 0
423 421 -420 0
-424 373 -364 0
-424 -373 364 0
424 373 364 0
424 -373 -364 0
-425 10 0
-425 417 0
425 -10 -417 0
-426 424 0
-426 425 0
426 -424 -425 0
-427 -425 -424 0
-427 425 424 0
427 -425 424 0
427 425 -424 0
-428 -371 -368 0
-428 371 368 0
428 -371 368 0
428 371 -368 0
-429 33 0
-429 417 0
429 -33 -417 0
-430 428 0
-430 429 0
430 -428 -429 0
-431 427 0
-431 430 0
431 -427 -430 0
-432 -426 0
-432 -431 0
432 426 431 0
-433 423 0
-433 -432 0
433 -423 432 0
-434 -422 0
-434 -433 0
434 422 433 0
-435 434 -419 0
-435 -434 419 0
435 434 419 0
435 -434 -419 0
-436 13 0
-436 32 0
436 -13 -32 0
-437 14 0
-437 30 0
437 -14 -30 0
-438 436 0
-438 437 0
438 -436 -437 0
-439 -437 -436 0
-439 437 436 0
439 -437 436 0
439 437 -436 0
-440 -381 0
-440 -384 0
440 381 384 0
-441 439 0
-441 -440 0
441 -439 440 0
-442 440 -439 0
-442 -440 439 0
442 440 439 0
442 -440 -439 0
-443 15 0
-443 29 0
443 -15 -29 0
-444 442 0
-444 443 0
444 -442 -443 0
-445 -443 -442 0
-445 443 442 0
445 -443 442 0
445 443 -442 0
-446 -387 0
-446 -390 0
446 387 390 0
-447 445 0
-447 -446 0
447 -445 446 0
-448 446 -445 0
-448 -446 445 0
448 446 445 0
448 -446 -445 0
-449 16 0
-449 28 0
449 -16 -28 0
-450 448 0
-450 449 0
450 -448 -449 0
-451 -449 -448 0
-451 449 448 0
451 -449 448 0
451 449 -448 0
-452 -393 0
-452 -396 0
452 393 396 0
-453 451 0
-453 -452 0
453 -451 452 0
-454 452 -451 0
-454 -452 451 0
454 452 451 0
454 -452 -451 0
-455 17 0
-455 27 0
455 -17 -27 0
-456 454 0
-456 455 0
456 -454 -455 0
-457 -455 -454 0
-457 455 454 0
457 -455 454 0
457 455 -454 0
-458 -399 0
-458 -402 0
458 399 402 0
-459 457 0
-459 -458 0
459 -457 458 0
-460 458 -457 0
-460 -458 457 0
460 458 457 0
460 -458 -457 0
-461 18 0
-461 26 0
461 -18 -26 0
-462 460 0
-462 461 0
462 -460 -461 0
-463 -461 -460 0
-463 461 460 0
463 -461 460 0
463 461 -460 0
-464 -405 0
-464 -408 0
464 405 408 0
-465 463 0
-465 -464 0
465 -463 464 0
-466 464 -463 0
-466 -464 463 0
466 464 463 0
466 -464 -463 0
-467 19 0
-467 25 0
467 -19 -25 0
-468 466 0
-468 467 0
468 -466 -467 0
-469 -467 -466 0
-469 467 466 0
469 -467 466 0
469 467 -466 0
-470 -411 0
-470 -413 0
470 411 413 0
-471 469 0
-471 -470 0
471 -469 470 0
-472 470 -469 0
-472 -470 469 0
472 470 469 0
472 -470 -469 0
-473 20 0
-473 24 0
473 -20 -24 0
-474 472 0
-474 473 0
474 -472 -473 0
-475 -473 -472 0
-475 473 472 0
475 -473 472 0
475 473 -472 0
-476 416 0
-476 475 0
476 -416 -475 0
-477 -475 -416 0
-477 475 416 0
477 -475 416 0
477 475 -416 0
-478 23 0
-478 31 0
478 -23 -31 0
-479 477 0
-479 478 0
479 -477 -478 0
-480 -478 -477 0
-480 478 477 0
480 -478 477 0
480 478 -477 0
-481 9 0
-481 480 0
481 -9 -480 0
-482 -481 -435 0
-482 481 435 0
482 -481 435 0
482 481 -435 0
-483 432 -423 0
-483 -432 423 0
483 432 423 0
483 -432 -423 0
-484 10 0
-484 480 0
484 -10 -480 0
-485 483 0
-485 484 0
485 -483 -484 0
-486 -484 -483 0
-486 484 483 0
486 -484 483 0
486 484 -483 0
-487 -430 -427 0
-487 430 427 0
487 -430 427 0
487 430 -427 0
-488 33 0
-488 480 0
488 -33 -480 0
-489 487 0
-489 488 0
489 -487 -488 0
-490 486 0
-490 489 0
490 -486 -489 0
-491 -485 0
-491 -490 0
491 485 490 0
-492 491 -482 0
-492 -491 482 0
492 491 482 0
492 -491 -482 0
-493 12 0
-493 32 0
493 -12 -32 0
-494 13 0
-494 30 0
494 -13 -30 0
-495 493 0
-495 494 0
495 -493 -494 0
-496 -494 -493 0
-496 494 493 0
496 -494 493 0
496 494 -493 0
-497 -438 0
-497 -441 0
497 438 441 0
-498 496 0
-498 -497 0
498 -496 497 0
-499 497 -496 0
-499 -497 496 0
499 497 496 0
499 -497 -496 0
-500 14 0
-500 29 0
500 -14 -29 0
-501 499 0
-501 500 0
501 -499 -500 0
-502 -500 -499 0
-502 500 499 0
502 -500 499 0
502 500 -499 0
-503 -444 0
-503 -447 0
503 444 447 0
-504 502 0
-504 -503 0
504 -502 503 0
-505 503 -502 0
-505 -503 502 0
505 503 502 0
505 -503 -502 0
-506 15 0
-506 28 0
506 -15 -28 0
-507 505 0
-507 506 0
507 -505 -506 0
-508 -506 -505 0
-508 506 505 0
508 -506 505 0
508 506 -505 0
-509 -450 0
-509 -453 0
509 450 453 0
-510 508 0
-510 -509 0
510 -508 509 0
-511 509 -508 0
-511 -509 508 0
511 509 508 0
511 -509 -508 0
-512 16 0
-512 27 0
512 -16 -27 0
-513 511 0
-513 512 0
513 -511 -512 0
-514 -512 -511 0
-514 512 511 0
514 -512 511 0
514 512 -511 0
-515 -456 0
-515 -459 0
515 456 459 0
-516 514 0
-516 -515 0
516 -514 515 0
-517 515 -514 0
-517 -515 514 0
517 515 514 0
517 -515 -514 0
-518 17 0
-518 26 0
518 -17 -26 0
-519 517 0
-519 518 0
519 -517 -518 0
-520 -518 -517 0
-520 518 517 0
520 -518 517 0
520 518 -517 0
-521 -462 0
-521 -465 0
521 462 465 0
-522 520 0
-522 -521 0
522 -520 521 0
-523 521 -520 0
-523 -521 520 0
523 521 520 0
523 -521 -520 0
-524 18 0
-524 25 0
524 -18 -25 0
-525 523 0
-525 524 0
525 -523 -524 0
-526 -524 -523 0
-526 524 523 0
526 -524 523 0
526 524 -523 0
-527 -468 0
-527 -471 0
527 468 471 0
-528 526 0
-528 -527 0
528 -526 527 0
-529 527 -526 0
-529 -527 526 0
529 527 526 0
529 -527 -526 0
-530 19 0
-530 24 0
530 -19 -24 0
-531 529 0
-531 530 0
531 -529 -530 0
-532 -530 -529 0
-532 530 529 0
532 -530 529 0
532 530 -529 0
-533 -474 0
-533 -476 0
533 474 476 0
-534 532 0
-534 -533 0
534 -532 533 0
-535 533 -532 0
-535 -533 532 0
535 533 532 0
535 -533 -532 0
-536 20 0
-536 23 0
536 -20 -23 0
-537 535 0
-537 536 0
537 -535 -536 0
-538 -536 -535 0
-538 536 535 0
538 -536 535 0
538 536 -535 0
-539 479 0
-539 538 0
539 -479 -538 0
-540 -538 -479 0
-540 538 479 0
540 -538 479 0
540 538 -479 0
-541 22 0
-541 31 0
541 -22 -31 0
-542 540 0
-542 541 0
542 -540 -541 0
-543 -541 -540 0
-543 541 540 0
543 -541 540 0
543 541 -540 0
-544 10 0
-544 543 0
544 -10 -543 0
-545 -544 -492 0
-545 544 492 0
545 -544 492 0
545 544 -492 0
-546 -489 -486 0
-546 489 486 0
546 -489 486 0
546 489 -486 0
-547 33 0
-547 543 0
547 -33 -543 0
-548 546 0
-548 547 0
548 -546 -547 0
-549 -548 -545 0
-549 548 545 0
549 -548 545 0
549 548 -545 0
-550 11 0
-550 32 0
550 -11 -32 0
-551 12 0
-551 30 0
551 -12 -30 0
-552 -551 -550 0
-552 551 550 0
552 -551 550 0
552 551 -550 0
-553 -495 0
-553 -498 0
553 495 498 0
-554 553 -552 0
-554 -553 552 0
554 553 552 0
554 -553 -552 0
-555 13 0
-555 29 0
555 -13 -29 0
-556 -555 -554 0
-556 555 554 0
556 -555 554 0
556 555 -554 0
-557 -501 0
-557 -504 0
557 501 504 0
-558 557 -556 0
-558 -557 556 0
558 557 556 0
558 -557 -556 0
-559 14 0
-559 28 0
559 -14 -28 0
-560 -559 -558 0
-560 559 558 0
560 -559 558 0
560 559 -558 0
-561 -507 0
-561 -510 0
561 507 510 0
-562 561 -560 0
-562 -561 560 0
562 561 560 0
562 -561 -560 0
-563 15 0
-563 27 0
563 -15 -27 0
-564 -563 -562 0
-564 563 562 0
564 -563 562 0
564 563 -562 0
-565 -513 0
-565 -516 0
565 513 516 0
-566 565 -564 0
-566 -565 564 0
566 565 564 0
566 -565 -564 0
-567 16 0
-567 26 0
567 -16 -26 0
-568 -567 -566 0
-568 567 566 0
568 -567 566 0
568 567 -566 0
-569 -519 0
-569 -522 0
569 519 522 0
-570 569 -568 0
-570 -569 568 0
570 569 568 0
570 -569 -568 0
-571 17 0
-571 25 0
571 -17 -25 0
-572 -571 -570 0
-572 571 570 0
572 -571 570 0
572 571 -570 0
-573 -525 0
-573 -528 0
573 525 528 0
-574 573 -572 0
-574 -573 572 0
574 573 572 0
574 -573 -572 0
-575 18 0
-575 24 0
575 -18 -24 0
-576 -575 -574 0
-576 575 574 0
576 -575 574 0
576 575 -574 0
-577 -531 0
-577 -534 0
577 531 534 0
-578 577 -576 0
-578 -577 576 0
578 577 576 0
578 -577 -576 0
-579 19 0
-579 23 0
579 -19 -23 0
-580 -579 -578 0
-580 579 578 0
580 -579 578 0
580 579 -578 0
-581 -537 0
-581 -539 0
581 537 539 0
-582 581 -580 0
-582 -581 580 0
582 581 580 0
582 -581 -580 0
-583 20 0
-583 22 0
583 -20 -22 0
-584 -583 -582 0
-584 583 582 0
584 -583 582 0
584 583 -582 0
-585 -584 -542 0
-585 584 542 0
585 -584 542 0
585 584 -542 0
-586 21 0
-586 31 0
586 -21 -31 0
-587 -586 -585 0
-587 586 585 0
587 -586 585 0
587 586 -585 0
-588 33 0
-588 587 0
588 -33 -587 0
-589 -588 -549 0
-589 588 549 0
589 -588 549 0
589 588 -549 0
-590 1 0
-590 31 0
590 -1 -31 0
-591 2 0
-591 20 0
591 -2 -20 0
-592 -591 -590 0
-592 591 590 0
592 -591 590 0
592 591 -590 0
-593 2 0
-593 31 0
593 -2 -31 0
-594 3 0
-594 20 0
594 -3 -20 0
-595 593 0
-595 594 0
595 -593 -594 0
-596 -594 -593 0
-596 594 593 0
596 -594 593 0
596 594 -593 0
-597 3 0
-597 31 0
597 -3 -31 0
-598 4 0
-598 20 0
598 -4 -20 0
-599 597 0
-599 598 0
599 -597 -598 0
-600 -598 -597 0
-600 598 597 0
600 -598 597 0
600 598 -597 0
-601 4 0
-601 31 0
601 -4 -31 0
-602 5 0
-602 20 0
602 -5 -20 0
-603 601 0
-603 602 0
603 -601 -602 0
-604 -602 -601 0
-604 602 601 0
604 -602 601 0
604 602 -601 0
-605 5 0
-605 31 0
605 -5 -31 0
-606 6 0
-606 20 0
606 -6 -20 0
-607 605 0
-607 606 0
607 -605 -606 0
-608 -606 -605 0
-608 606 605 0
608 -606 605 0
608 606 -605 0
-609 6 0
-609 31 0
609 -6 -31 0
-610 7 0
-610 20 0
610 -7 -20 0
-611 609 0
-611 610 0
611 -609 -610 0
-612 -610 -609 0
-612 610 609 0
612 -610 609 0
612 610 -609 0
-613 7 0
-613 31 0
613 -7 -31 0
-614 8 0
-614 20 0
614 -8 -20 0
-615 613 0
-615 614 0
615 -613 -614 0
-616 -614 -613 0
-616 614 613 0
616 -614 613 0
616 614 -613 0
-617 8 0
-617 31 0
617 -8 -31 0
-618 9 0
-618 20 0
618 -9 -20 0
-619 617 0
-619 618 0
619 -617 -618 0
-620 -618 -617 0
-620 618 617 0
620 -618 617 0
620 618 -617 0
-621 9 0
-621 31 0
621 -9 -31 0
-622 10 0
-622 20 0
622 -10 -20 0
-623 621 0
-623 622 0
623 -621 -622 0
-624 -622 -621 0
-624 622 621 0
624 -622 621 0
624 622 -621 0
-625 10 0
-625 31 0
625 -10 -31 0
-626 20 0
-626 33 0
626 -20 -33 0
-627 625 0
-627 626 0
627 -625 -626 0
-628 624 0
-628 627 0
628 -624 -627 0
-629 -623 0
-629 -628 0
629 623 628 0
-630 620 0
-630 -629 0
630 -620 629 0
-631 -619 0
-631 -630 0
631 619 630 0
-632 616 0
-632 -631 0
632 -616 631 0
-633 -615 0
-633 -632 0
633 615 632 0
-634 612 0
-634 -633 0
634 -612 633 0
-635 -611 0
-635 -634 0
635 611 634 0
-636 608 0
-636 -635 0
636 -608 635 0
-637 -607 0
-637 -636 0
637 607 636 0
-638 604 0
-638 -637 0
638 -604 637 0
-639 -603 0
-639 -638 0
639 603 638 0
-640 600 0
-640 -639 0
640 -600 639 0
-641 -599 0
-641 -640 0
641 599 640 0
-642 596 0
-642 -641 0
642 -596 641 0
-643 -595 0
-643 -642 0
643 595 642 0
-644 643 -592 0
-644 -643 592 0
644 643 592 0
644 -643 -592 0
-645 3 0
-645 19 0
645 -3 -19 0
-646 -645 -644 0
-646 645 644 0
646 -645 644 0
646 645 -644 0
-647 641 -596 0
-647 -641 596 0
647 641 596 0
647 -641 -596 0
-648 4 0
-648 19 0
648 -4 -19 0
-649 647 0
-649 648 0
649 -647 -648 0
-650 -648 -647 0
-650 648 647 0
650 -648 647 0
650 648 -647 0
-651 639 -600 0
-651 -639 600 0
651 639 600 0
651 -639 -600 0
-652 5 0
-652 19 0
652 -5 -19 0
-653 651 0
-653 652 0
653 -651 -652 0
-654 -652 -651 0
-654 652 651 0
654 -652 651 0
654 652 -651 0
-655 637 -604 0
-655 -637 604 0
655 637 604 0
655 -637 -604 0
-656 6 0
-656 19 0
656 -6 -19 0
-657 655 0
-657 656 0
657 -655 -656 0
-658 -656 -655 0
-658 656 655 0
658 -656 655 0
658 656 -655 0
-659 635 -608 0
-659 -635 608 0
659 635 608 0
659 -635 -608 0
-660 7 0
-660 19 0
660 -7 -19 0
-661 659 0
-661 660 0
661 -659 -660 0
-662 -660 -659 0
-662 660 659 0
662 -660 659 0
662 660 -659 0
-663 633 -612 0
-663 -633 612 0
663 633 612 0
663 -633 -612 0
-664 8 0
-664 19 0
664 -8 -19 0
-665 663 0
-665 664 0
665 -663 -664 0
-666 -664 -663 0
-666 664 663 0
666 -664 663 0
666 664 -663 0
-667 631 -616 0
-667 -631 616 0
667 631 616 0
667 -631 -616 0
-668 9 0
-668 19 0
668 -9 -19 0
-669 667 0
-669 668 0
669 -667 -668 0
-670 -668 -667 0
-670 668 667 0
670 -668 667 0
670 668 -667 0
-671 629 -620 0
-671 -629 620 0
671 629 620 0
671 -629 -620 0
-672 10 0
-672 19 0
672 -10 -19 0
-673 671 0
-673 672 0
673 -671 -672 0
-674 -672 -671 0
-674 672 671 0
674 -672 671 0
674 672 -671 0
-675 -627 -624 0
-675 627 624 0
675 -627 624 0
675 627 -624 0
-676 19 0
-676 33 0
676 -19 -33 0
-677 675 0
-677 676 0
677 -675 -676 0
-678 674 0
-678 677 0
678 -674 -677 0
-679 -673 0
-679 -678 0
679 673 678 0
-680 670 0
-680 -679 0
680 -670 679 0
-681 -669 0
-681 -680 0
681 669 680 0
-682 666 0
-682 -681 0
682 -666 681 0
-683 -665 0
-683 -682 0
683 665 682 0
-684 662 0
-684 -683 0
684 -662 683 0
-685 -661 0
-685 -684 0
685 661 684 0
-686 658 0
-686 -685 0
686 -658 685 0
-687 -657 0
-687 -686 0
687 657 686 0
-688 654 0
-688 -687 0
688 -654 687 0
-689 -653 0
-689 -688 0
689 653 688 0
-690 650 0
-690 -689 0
690 -650 689 0
-691 -649 0
-691 -690 0
691 649 690 0
-692 691 -646 0
-692 -691 646 0
692 691 646 0
692 -691 -646 0
-693 4 0
-693 18 0
693 -4 -18 0
-694 -693 -692 0
-694 693 692 0
694 -693 692 0
694 693 -692 0
-695 689 -650 0
-695 -689 650 0
695 689 650 0
695 -689 -650 0
-696 5 0
-696 18 0
696 -5 -18 0
-697 695 0
-697 696 0
697 -695 -696 0
-698 -696 -695 0
-698 696 695 0
698 -696 695 0
698 696 -695 0
-699 687 -654 0
-699 -687 654 0
699 687 654 0
699 -687 -654 0
-700 6 0
-700 18 0
700 -6 -18 0
-701 699 0
-701 700 0
701 -699 -700 0
-702 -700 -699 0
-702 700 699 0
702 -700 699 0
702 700 -699 0
-703 685 -658 0
-703 -685 658 0
703 685 658 0
703 -685 -658 0
-704 7 0
-704 18 0
704 -7 -18 0
-705 703 0
-705 704 0
705 -703 -704 0
-706 -704 -703 0
-706 704 703 0
706 -704 703 0
706 704 -703 0
-707 683 -662 0
-707 -683 662 0
707 683 662 0
707 -683 -662 0
-708 8 0
-708 18 0
708 -8 -18 0
-709 707 0
-709 708 0
709 -707 -708 0
-710 -708 -707 0
-710 708 707 0
710 -708 707 0
710 708 -707 0
-711 681 -666 0
-711 -681 666 0
711 681 666 0
711 -681 -666 0
-712 9 0
-712 18 0
712 -9 -18 0
-713 711 0
-713 712 0
713 -711 -712 0
-714 -712 -711 0
-714 712 711 0
714 -712 711 0
714 712 -711 0
-715 679 -670 0
-715 -679 670 0
715 679 670 0
715 -679 -670 0
-716 10 0
-716 18 0
716 -10 -18 0
-717 715 0
-717 716 0
717 -715 -716 0
-718 -716 -715 0
-718 716 715 0
718 -716 715 0
718 716 -715 0
-719 -677 -674 0
-719 677 674 0
719 -677 674 0
719 677 -674 0
-720 18 0
-720 33 0
720 -18 -33 0
-721 719 0
-721 720 0
721 -719 -720 0
-722 718 0
-722 721 0
722 -718 -721 0
-723 -717 0
-723 -722 0
723 717 722 0
-724 714 0
-724 -723 0
724 -714 723 0
-725 -713 0
-725 -724 0
725 713 724 0
-726 710 0
-726 -725 0
726 -710 725 0
-727 -709 0
-727 -726 0
727 709 726 0
-728 706 0
-728 -727 0
728 -706 727 0
-729 -705 0
-729 -728 0
729 705 728 0
-730 702 0
-730 -729 0
730 -702 729 0
-731 -701 0
-731 -730 0
731 701 730 0
-732 698 0
-732 -731 0
732 -698 731 0
-733 -697 0
-733 -732 0
733 697 732 0
-734 733 -694 0
-734 -733 694 0
734 733 694 0
734 -733 -694 0
-735 5 0
-735 17 0
735 -5 -17 0
-736 -735 -734 0
-736 735 734 0
736 -735 734 0
736 735 -734 0
-737 731 -698 0
-737 -731 698 0
737 731 698 0
737 -731 -698 0
-738 6 0
-738 17 0
738 -6 -17 0
-739 737 0
-739 738 0
739 -737 -738 0
-740 -738 -737 0
-740 738 737 0
740 -738 737 0
740 738 -737 0
-741 729 -702 0
-741 -729 702 0
741 729 702 0
741 -729 -702 0
-742 7 0
-742 17 0
742 -7 -17 0
-743 741 0
-743 742 0
743 -741 -742 0
-744 -742 -741 0
-744 742 741 0
744 -742 741 0
744 742 -741 0
-745 727 -706 0
-745 -727 706 0
745 727 706 0
745 -727 -706 0
-746 8 0
-746 17 0
746 -8 -17 0
-747 745 0
-747 746 0
747 -745 -746 0
-748 -746 -745 0
-748 746 745 0
748 -746 745 0
748 746 -745 0
-749 725 -710 0
-749 -725 710 0
749 725 710 0
749 -725 -710 0
-750 9 0
-750 17 0
750 -9 -17 0
-751 749 0
-751 750 0
751 -749 -750 0
-752 -750 -749 0
-752 750 749 0
752 -750 749 0
752 750 -749 0
-753 723 -714 0
-753 -723 714 0
753 723 714 0
753 -723 -714 0
-754 10 0
-754 17 0
754 -10 -17 0
-755 753 0
-755 754 0
755 -753 -754 0
-756 -754 -753 0
-756 754 753 0
756 -754 753 0
756 754 -753 0
-757 -721 -718 0
-757 721 718 0
757 -721 718 0
757 721 -718 0
-758 17 0
-758 33 0
758 -17 -33 0
-759 757 0
-759 758 0
759 -757 -758 0
-760 756 0
-760 759 0
760 -756 -759 0
-761 -755 0
-761 -760 0
761 755 760 0
-762 752 0
-762 -761 0
762 -752 761 0
-763 -751 0
-763 -762 0
763 751 762 0
-764 748 0
-764 -763 0
764 -748 763 0
-765 -747 0
-765 -764 0
765 747 764 0
-766 744 0
-766 -765 0
766 -744 765 0
-767 -743 0
-767 -766 0
767 743 766 0
-768 740 0
-768 -767 0
768 -740 767 0
-769 -739 0
-769 -768 0
769 739 768 0
-770 769 -736 0
-770 -769 736 0
770 769 736 0
770 -769 -736 0
-771 6 0
-771 16 0
771 -6 -16 0
-772 -771 -770 0
-772 771 770 0
772 -771 770 0
772 771 -770 0
-773 767 -740 0
-773 -767 740 0
773 767 740 0
773 -767 -740 0
-774 7 0
-774 16 0
774 -7 -16 0
-775 773 0
-775 774 0
775 -773 -774 0
-776 -774 -773 0
-776 774 773 0
776 -774 773 0
776 774 -773 0
-777 765 -744 0
-777 -765 744 0
777 765 744 0
777 -765 -744 0
-778 8 0
-778 16 0
778 -8 -16 0
-779 777 0
-779 778 0
779 -777 -778 0
-780 -778 -777 0
-780 778 777 0
780 -778 777 0
780 778 -777 0
-781 763 -748 0
-781 -763 748 0
781 763 748 0
781 -763 -748 0
-782 9 0
-782 16 0
782 -9 -16 0
-783 781 0
-783 782 0
783 -781 -782 0
-784 -782 -781 0
-784 782 781 0
784 -782 781 0
784 782 -781 0
-785 761 -752 0
-785 -761 752 0
785 761 752 0
785 -761 -752 0
-786 10 0
-786 16 0
786 -10 -16 0
-787 785 0
-787 786 0
787 -785 -786 0
-788 -786 -785 0
-788 786 785 0
788 -786 785 0
788 786 -785 0
-789 -759 -756 0
-789 759 756 0
789 -759 756 0
789 759 -756 0
-790 16 0
-790 33 0
790 -16 -33 0
-791 789 0
-791 790 0
791 -789 -790 0
-792 788 0
-792 791 0
792 -788 -791 0
-793 -787 0
-793 -792 0
793 787 792 0
-794 784 0
-794 -793 0
794 -784 793 0
-795 -783 0
-795 -794 0
795 783 794 0
-796 780 0
-796 -795 0
796 -780 795 0
-797 -779 0
-797 -796 0
797 779 796 0
-798 776 0
-798 -797 0
798 -776 797 0
-799 -775 0
-799 -798 0
799 775 798 0
-800 799 -772 0
-800 -799 772 0
800 799 772 0
800 -799 -772 0
-801 7 0
-801 15 0
801 -7 -15 0
-802 -801 -800 0
-802 801 800 0
802 -801 800 0
802 801 -800 0
-803 797 -776 0
-803 -797 776 0
803 797 776 0
803 -797 -776 0
-804 8 0
-804 15 0
804 -8 -15 0
-805 803 0
-805 804 0
805 -803 -804 0
-806 -804 -803 0
-806 804 803 0
806 -804 803 0
806 804 -803 0
-807 795 -780 0
-807 -795 780 0
807 795 780 0
807 -795 -780 0
-808 9 0
-808 15 0
808 -9 -15 0
-809 807 0
-809 808 0
809 -807 -808 0
-810 -808 -807 0
-810 808 807 0
810 -808 807 0
810 808 -807 0
-811 793 -784 0
-811 -793 784 0
811 793 784 0
811 -793 -784 0
-812 10 0
-812 15 0
812 -10 -15 0
-813 811 0
-813 812 0
813 -811 -812 0
-814 -812 -811 0
-814 812 811 0
814 -812 811 0
814 812 -811 0
-815 -791 -788 0
-815 791 788 0
815 -791 788 0
815 791 -788 0
-816 15 0
-816 33 0
816 -15 -33 0
-817 815 0
-817 816 0
817 -815 -816 0
-818 814 0
-818 817 0
818 -814 -817 0
-819 -813 0
-819 -818 0
819 813 818 0
-820 810 0
-820 -819 0
820 -810 819 0
-821 -809 0
-821 -820 0
821 809 820 0
-822 806 0
-822 -821 0
822 -806 821 0
-823 -805 0
-823 -822 0
823 805 822 0
-824 823 -802 0
-824 -823 802 0
824 823 802 0
824 -823 -802 0
-825 8 0
-825 14 0
825 -8 -14 0
-826 -825 -824 0
-826 825 824 0
826 -825 824 0
826 825 -824 0
-827 821 -806 0
-827 -821 806 0
827 821 806 0
827 -821 -806 0
-828 9 0
-828 14 0
828 -9 -14 0
-829 827 0
-829 828 0
829 -827 -828 0
-830 -828 -827 0
-830 828 827 0
830 -828 827 0
830 828 -827 0
-831 819 -810 0
-831 -819 810 0
831 819 810 0
831 -819 -810 0
-832 10 0
-832 14 0
832 -10 -14 0
-833 831 0
-833 832 0
833 -831 -832 0
-834 -832 -831 0
-834 832 831 0
834 -832 831 0
834 832 -831 0
-835 -817 -814 0
-835 817 814 0
835 -817 814 0
835 817 -814 0
-836 14 0
-836 33 0
836 -14 -33 0
-837 835 0
-837 836 0
837 -835 -836 0
-838 834 0
-838 837 0
838 -834 -837 0
-839 -833 0
-839 -838 0
839 833 838 0
-840 830 0
-840 -839 0
840 -830 839 0
-841 -829 0
-841 -840 0
841 829 840 0
-842 841 -826 0
-842 -841 826 0
842 841 826 0
842 -841 -826 0
-843 9 0
-843 13 0
843 -9 -13 0
-844 -843 -842 0
-844 843 842 0
844 -843 842 0
844 843 -842 0
-845 839 -830 0
-845 -839 830 0
845 839 830 0
845 -839 -830 0
-846 10 0
-846 13 0
846 -10 -13 0
-847 845 0
-847 846 0
847 -845 -846 0
-848 -846 -845 0
-848 846 845 0
848 -846 845 0
848 846 -845 0
-849 -837 -834 0
-849 837 834 0
849 -837 834 0
849 837 -834 0
-850 13 0
-850 33 0
850 -13 -33 0
-851 849 0
-851 850 0
851 -849 -850 0
-852 848 0
-852 851 0
852 -848 -851 0
-853 -847 0
-853 -852 0
853 847 852 0
-854 853 -844 0
-854 -853 844 0
854 853 844 0
854 -853 -844 0
-855 10 0
-855 12 0
855 -10 -12 0
-856 -855 -854 0
-856 855 854 0
856 -855 854 0
856 855 -854 0
-857 -851 -848 0
-857 851 848 0
857 -851 848 0
857 851 -848 0
-858 12 0
-858 33 0
858 -12 -33 0
-859 857 0
-859 858 0
859 -857 -858 0
-860 -859 -856 0
-860 859 856 0
860 -859 856 0
860 859 -856 0
-861 11 0
-861 33 0
861 -11 -33 0
-862 -861 -860 0
-862 861 860 0
862 -861 860 0
862 861 -860 0
-863 32 0
-863 862 0
863 -32 -862 0
-864 -858 -857 0
-864 858 857 0
864 -858 857 0
864 858 -857 0
-865 30 0
-865 864 0
865 -30 -864 0
-866 -865 -863 0
-866 865 863 0
866 -865 863 0
866 865 -863 0
-867 32 0
-867 864 0
867 -32 -864 0
-868 -850 -849 0
-868 850 849 0
868 -850 849 0
868 850 -849 0
-869 30 0
-869 868 0
869 -30 -868 0
-870 867 0
-870 869 0
870 -867 -869 0
-871 -869 -867 0
-871 869 867 0
871 -869 867 0
871 869 -867 0
-872 32 0
-872 868 0
872 -32 -868 0
-873 -836 -835 0
-873 836 835 0
873 -836 835 0
873 836 -835 0
-874 30 0
-874 873 0
874 -30 -873 0
-875 872 0
-875 874 0
875 -872 -874 0
-876 -874 -872 0
-876 874 872 0
876 -874 872 0
876 874 -872 0
-877 32 0
-877 873 0
877 -32 -873 0
-878 -816 -815 0
-878 816 815 0
878 -816 815 0
878 816 -815 0
-879 30 0
-879 878 0
879 -30 -878 0
-880 877 0
-880 879 0
880 -877 -879 0
-881 -879 -877 0
-881 879 877 0
881 -879 877 0
881 879 -877 0
-882 32 0
-882 878 0
882 -32 -878 0
-883 -790 -789 0
-883 790 789 0
883 -790 789 0
883 790 -789 0
-884 30 0
-884 883 0
884 -30 -883 0
-885 882 0
-885 884 0
885 -882 -884 0
-886 -884 -882 0
-886 884 882 0
886 -884 882 0
886 884 -882 0
-887 32 0
-887 883 0
887 -32 -883 0
-888 -758 -757 0
-888 758 757 0
888 -758 757 0
888 758 -757 0
-889 30 0
-889 888 0
889 -30 -888 0
-890 887 0
-890 889 0
890 -887 -889 0
-891 -889 -887 0
-891 889 887 0
891 -889 887 0
891 889 -887 0
-892 32 0
-892 888 0
892 -32 -888 0
-893 -720 -719 0
-893 720 719 0
893 -720 719 0
893 720 -719 0
-894 30 0
-894 893 0
894 -30 -893 0
-895 892 0
-895 894 0
895 -892 -894 0
-896 -894 -892 0
-896 894 892 0
896 -894 892 0
896 894 -892 0
-897 32 0
-897 893 0
897 -32 -893 0
-898 -676 -675 0
-898 676 675 0
898 -676 675 0
898 676 -675 0
-899 30 0
-899 898 0
899 -30 -898 0
-900 897 0
-900 899 0
900 -897 -899 0
-901 -899 -897 0
-901 899 897 0
901 -899 897 0
901 899 -897 0
-902 32 0
-902 898 0
902 -32 -898 0
-903 -626 -625 0
-903 626 625 0
903 -626 625 0
903 626 -625 0
-904 30 0
-904 903 0
904 -30 -903 0
-905 902 0
-905 904 0
905 -902 -904 0
-906 -904 -902 0
-906 904 902 0
906 -904 902 0
906 904 -902 0
-907 32 0
-907 903 0
907 -32 -903 0
-908 31 0
-908 33 0
908 -31 -33 0
-909 30 0
-909 908 0
909 -30 -908 0
-910 907 0
-910 909 0
910 -907 -909 0
-911 906 0
-911 910 0
911 -906 -910 0
-912 -905 0
-912 -911 0
912 905 911 0
-913 901 0
-913 -912 0
913 -901 912 0
-914 -900 0
-914 -913 0
914 900 913 0
-915 896 0
-915 -914 0
915 -896 914 0
-916 -895 0
-916 -915 0
916 895 915 0
-917 891 0
-917 -916 0
917 -891 916 0
-918 -890 0
-918 -917 0
918 890 917 0
-919 886 0
-919 -918 0
919 -886 918 0
-920 -885 0
-920 -919 0
920 885 919 0
-921 881 0
-921 -920 0
921 -881 920 0
-922 -880 0
-922 -921 0
922 880 921 0
-923 876 0
-923 -922 0
923 -876 922 0
-924 -875 0
-924 -923 0
924 875 923 0
-925 871 0
-925 -924 0
925 -871 924 0
-926 -870 0
-926 -925 0
926 870 925 0
-927 926 -866 0
-927 -926 866 0
927 926 866 0
927 -926 -866 0
-928 29 0
-928 868 0
928 -29 -868 0
-929 -928 -927 0
-929 928 927 0
929 -928 927 0
929 928 -927 0
-930 924 -871 0
-930 -924 871 0
930 924 871 0
930 -924 -871 0
-931 29 0
-931 873 0
931 -29 -873 0
-932 930 0
-932 931 0
932 -930 -931 0
-933 -931 -930 0
-933 931 930 0
933 -931 930 0
933 931 -930 0
-934 922 -876 0
-934 -922 876 0
934 922 876 0
934 -922 -876 0
-935 29 0
-935 878 0
935 -29 -878 0
-936 934 0
-936 935 0
936 -934 -935 0
-937 -935 -934 0
-937 935 934 0
937 -935 934 0
937 935 -934 0
-938 920 -881 0
-938 -920 881 0
938 920 881 0
938 -920 -881 0
-939 29 0
-939 883 0
939 -29 -883 0
-940 938 0
-940 939 0
940 -938 -939 0
-941 -939 -938 0
-941 939 938 0
941 -939 938 0
941 939 -938 0
-942 918 -886 0
-942 -918 886 0
942 918 886 0
942 -918 -886 0
-943 29 0
-943 888 0
943 -29 -888 0
-944 942 0
-944 943 0
944 -942 -943 0
-945 -943 -942 0
-945 943 942 0
945 -943 942 0
945 943 -942 0
-946 916 -891 0
-946 -916 891 0
946 916 891 0
946 -916 -891 0
-947 29 0
-947 893 0
947 -29 -893 0
-948 946 0
-948 947 0
948 -946 -947 0
-949 -947 -946 0
-949 947 946 0
949 -947 946 0
949 947 -946 0
-950 914 -896 0
-950 -914 896 0
950 914 896 0
950 -914 -896 0
-951 29 0
-951 898 0
951 -29 -898 0
-952 950 0
-952 951 0
952 -950 -951 0
-953 -951 -950 0
-953 951 950 0
953 -951 950 0
953 951 -950 0
-954 912 -901 0
-954 -912 901 0
954 912 901 0
954 -912 -901 0
-955 29 0
-955 903 0
955 -29 -903 0
-956 954 0
-956 955 0
956 -954 -955 0
-957 -955 -954 0
-957 955 954 0
957 -955 954 0
957 955 -954 0
-958 -910 -906 0
-958 910 906 0
958 -910 906 0
958 910 -906 0
-959 29 0
-959 908 0
959 -29 -908 0
-960 958 0
-960 959 0
960 -958 -959 0
-961 957 0
-961 960 0
961 -957 -960 0
-962 -956 0
-962 -961 0
962 956 961 0
-963 953 0
-963 -962 0
963 -953 962 0
-964 -952 0
-964 -963 0
964 952 963 0
-965 949 0
-965 -964 0
965 -949 964 0
-966 -948 0
-966 -965 0
966 948 965 0
-967 945 0
-967 -966 0
967 -945 966 0
-968 -944 0
-968 -967 0
968 944 967 0
-969 941 0
-969 -968 0
969 -941 968 0
-970 -940 0
-970 -969 0
970 940 969 0
-971 937 0
-971 -970 0
971 -937 970 0
-972 -936 0
-972 -971 0
972 936 971 0
-973 933 0
-973 -972 0
973 -933 972 0
-974 -932 0
-974 -973 0
974 932 973 0
-975 974 -929 0
-975 -974 929 0
975 974 929 0
975 -974 -929 0
-976 28 0
-976 873 0
976 -28 -873 0
-977 -976 -975 0
-977 976 975 0
977 -976 975 0
977 976 -975 0
-978 972 -933 0
-978 -972 933 0
978 972 933 0
978 -972 -933 0
-979 28 0
-979 878 0
979 -28 -878 0
-980 978 0
-980 979 0
980 -978 -979 0
-981 -979 -978 0
-981 979 978 0
981 -979 978 0
981 979 -978 0
-982 970 -937 0
-982 -970 937 0
982 970 937 0
982 -970 -937 0
-983 28 0
-983 883 0
983 -28 -883 0
-984 982 0
-984 983 0
984 -982 -983 0
-985 -983 -982 0
-985 983 982 0
985 -983 982 0
985 983 -982 0
-986 968 -941 0
-986 -968 941 0
986 968 941 0
986 -968 -941 0
-987 28 0
-987 888 0
987 -28 -888 0
-988 986 0
-988 987 0
988 -986 -987 0
-989 -987 -986 0
-989 987 986 0
989 -987 986 0
989 987 -986 0
-990 966 -945 0
-990 -966 945 0
990 966 945 0
990 -966 -945 0
-991 28 0
-991 893 0
991 -28 -893 0
-992 990 0
-992 991 0
992 -990 -991 0
-993 -991 -990 0
-993 991 990 0
993 -991 990 0
993 991 -990 0
-994 964 -949 0
-994 -964 949 0
994 964 949 0
994 -964 -949 0
-995 28 0
-995 898 0
995 -28 -898 0
-996 994 0
-996 995 0
996 -994 -995 0
-997 -995 -994 0
-997 995 994 0
997 -995 994 0
997 995 -994 0
-998 962 -953 0
-998 -962 953 0
998 962 953 0
998 -962 -953 0
-999 28 0
-999 903 0
999 -28 -903 0
-1000 998 0
-1000 999 0
1000 -998 -999 0
-1001 -999 -998 0
-1001 999 998 0
1001 -999 998 0
1001 999 -998 0
-1002 -960 -957 0
-1002 960 957 0
1002 -960 957 0
1002 960 -957 0
-1003 28 0
-1003 908 0
1003 -28 -908 0
-1004 1002 0
-1004 1003 0
1004 -1002 -1003 0
-1005 1001 0
-1005 1004 0
1005 -1001 -1004 0
-1006 -1000 0
-1006 -1005 0
1006 1000 1005 0
-1007 997 0
-1007 -1006 0
1007 -997 1006 0
-1008 -996 0
-1008 -1007 0
1008 996 1007 0
-1009 993 0
-1009 -1008 0
1009 -993 1008 0
-1010 -992 0
-1010 -1009 0
1010 992 1009 0
-1011 989 0
-1011 -1010 0
1011 -989 1010 0
-1012 -988 0
-1012 -1011 0
1012 988 1011 0
-1013 985 0
-1013 -1012 0
1013 -985 1012 0
-1014 -984 0
-1014 -1013 0
1014 984 1013 0
-1015 981 0
-1015 -1014 0
1015 -981 1014 0
-1016 -980 0
-1016 -1015 0
1016 980 1015 0
-1017 1016 -977 0
-1017 -1016 977 0
1017 1016 977 0
1017 -1016 -977 0
-1018 27 0
-1018 878 0
1018 -27 -878 0
-1019 -1018 -1017 0
-1019 1018 1017 0
1019 -1018 1017 0
1019 1018 -1017 0
-1020 1014 -981 0
-1020 -1014 981 0
1020 1014 981 0
1020 -1014 -981 0
-1021 27 0
-1021 883 0
1021 -27 -883 0
-1022 1020 0
-1022 1021 0
1022 -1020 -1021 0
-1023 -1021 -1020 0
-1023 1021 1020 0
1023 -1021 1020 0
1023 1021 -1020 0
-1024 1012 -985 0
-1024 -1012 985 0
1024 1012 985 0
1024 -1012 -985 0
-1025 27 0
-1025 888 0
1025 -27 -888 0
-1026 1024 0
-1026 1025 0
1026 -1024 -1025 0
-1027 -1025 -1024 0
-1027 1025 1024 0
1027 -1025 1024 0
1027 1025 -1024 0
-1028 1010 -989 0
-1028 -1010 989 0
1028 1010 989 0
1028 -1010 -989 0
-1029 27 0
-1029 893 0
1029 -27 -893 0
-1030 1028 0
-1030 1029 0
1030 -1028 -1029 0
-1031 -1029 -1028 0
-1031 1029 1028 0
1031 -1029 1028 0
1031 1029 -1028 0
-1032 1008 -993 0
-1032 -1008 993 0
1032 1008 993 0
1032 -1008 -993 0
-1033 27 0
-1033 898 0
1033 -27 -898 0
-1034 1032 0
-1034 1033 0
1034 -1032 -1033 0
-1035 -1033 -1032 0
-1035 1033 1032 0
1035 -1033 1032 0
1035 1033 -1032 0
-1036 1006 -997 0
-1036 -1006 997 0
1036 1006 997 0
1036 -1006 -997 0
-1037 27 0
-1037 903 0
1037 -27 -903 0
-1038 1036 0
-1038 1037 0
1038 -1036 -1037 0
-1039 -1037 -1036 0
-1039 1037 1036 0
1039 -1037 1036 0
1039 1037 -1036 0
-1040 -1004 -1001 0
-1040 1004 1001 0
1040 -1004 1001 0
1040 1004 -1001 0
-1041 27 0
-1041 908 0
1041 -27 -908 0
-1042 1040 0
-1042 1041 0
1042 -1040 -1041 0
-1043 1039 0
-1043 1042 0
1043 -1039 -1042 0
-1044 -1038 0
-1044 -1043 0
1044 1038 1043 0
-1045 1035 0
-1045 -1044 0
1045 -1035 1044 0
-1046 -1034 0
-1046 -1045 0
1046 1034 1045 0
-1047 1031 0
-1047 -1046 0
1047 -1031 1046 0
-1048 -1030 0
-1048 -1047 0
1048 1030 1047 0
-1049 1027 0
-1049 -1048 0
1049 -1027 1048 0
-1050 -1026 0
-1050 -1049 0
1050 1026 1049 0
-1051 1023 0
-1051 -1050 0
1051 -1023 1050 0
-1052 -1022 0
-1052 -1051 0
1052 1022 1051 0
-1053 1052 -1019 0
-1053 -1052 1019 0
1053 1052 1019 0
1053 -1052 -1019 0
-1054 26 0
-1054 883 0
1054 -26 -883 0
-1055 -1054 -1053 0
-1055 1054 1053 0
1055 -1054 1053 0
1055 1054 -1053 0
-1056 1050 -1023 0
-1056 -1050 1023 0
1056 1050 1023 0
1056 -1050 -1023 0
-1057 26 0
-1057 888 0
1057 -26 -888 0
-1058 1056 0
-1058 1057 0
1058 -1056 -1057 0
-1059 -1057 -1056 0
-1059 1057 1056 0
1059 -1057 1056 0
1059 1057 -1056 0
-1060 1048 -1027 0
-1060 -1048 1027 0
1060 1048 1027 0
1060 -1048 -1027 0
-1061 26 0
-1061 893 0
1061 -26 -893 0
-1062 1060 0
-1062 1061 0
1062 -1060 -1061 0
-1063 -1061 -1060 0
-1063 1061 1060 0
1063 -1061 1060 0
1063 1061 -1060 0
-1064 1046 -1031 0
-1064 -1046 1031 0
1064 1046 1031 0
1064 -1046 -1031 0
-1065 26 0
-1065 898 0
1065 -26 -898 0
-1066 1064 0
-1066 1065 0
1066 -1064 -1065 0
-1067 -1065 -1064 0
-1067 1065 1064 0
1067 -1065 1064 0
1067 1065 -1064 0
-1068 1044 -1035 0
-1068 -1044 1035 0
1068 1044 1035 0
1068 -1044 -1035 0
-1069 26 0
-1069 903 0
1069 -26 -903 0
-1070 1068 0
-1070 1069 0
1070 -1068 -1069 0
-1071 -1069 -1068 0
-1071 1069 1068 0
1071 -1069 1068 0
1071 1069 -1068 0
-1072 -1042 -1039 0
-1072 1042 1039 0
1072 -1042 1039 0
1072 1042 -1039 0
-1073 26 0
-1073 908 0
1073 -26 -908 0
-1074 1072 0
-1074 1073 0
1074 -1072 -1073 0
-1075 1071 0
-1075 1074 0
1075 -1071 -1074 0
-1076 -1070 0
-1076 -1075 0
1076 1070 1075 0
-1077 1067 0
-1077 -1076 0
1077 -1067 1076 0
-1078 -1066 0
-1078 -1077 0
1078 1066 1077 0
-1079 1063 0
-1079 -1078 0
1079 -1063 1078 0
-1080 -1062 0
-1080 -1079 0
1080 1062 1079 0
-1081 1059 0
-1081 -1080 0
1081 -1059 1080 0
-1082 -1058 0
-1082 -1081 0
1082 1058 1081 0
-1083 1082 -1055 0
-1083 -1082 1055 0
1083 1082 1055 0
1083 -1082 -1055 0
-1084 25 0
-1084 888 0
1084 -25 -888 0
-1085 -1084 -1083 0
-1085 1084 1083 0
1085 -1084 1083 0
1085 1084 -1083 0
-1086 1080 -1059 0
-1086 -1080 1059 0
1086 1080 1059 0
1086 -1080 -1059 0
-1087 25 0
-1087 893 0
1087 -25 -893 0
-1088 1086 0
-1088 1087 0
1088 -1086 -1087 0
-1089 -1087 -1086 0
-1089 1087 1086 0
1089 -1087 1086 0
1089 1087 -1086 0
-1090 1078 -1063 0
-1090 -1078 1063 0
1090 1078 1063 0
1090 -1078 -1063 0
-1091 25 0
-1091 898 0
1091 -25 -898 0
-1092 1090 0
-1092 1091 0
1092 -1090 -1091 0
-1093 -1091 -1090 0
-1093 1091 1090 0
1093 -1091 1090 0
1093 1091 -1090 0
-1094 1076 -1067 0
-1094 -1076 1067 0
1094 1076 1067 0
1094 -1076 -1067 0
-1095 25 0
-1095 903 0
1095 -25 -903 0
-1096 1094 0
-1096 1095 0
1096 -1094 -1095 0
-1097 -1095 -1094 0
-1097 1095 1094 0
1097 -1095 1094 0
1097 1095 -1094 0
-1098 -1074 -1071 0
-1098 1074 1071 0
1098 -1074 1071 0
1098 1074 -1071 0
-1099 25 0
-1099 908 0
1099 -25 -908 0
-1100 1098 0
-1100 1099 0
1100 -1098 -1099 0
-1101 1097 0
-1101 1100 0
1101 -1097 -1100 0
-1102 -1096 0
-1102 -1101 0
1102 1096 1101 0
-1103 1093 0
-1103 -1102 0
1103 -1093 1102 0
-1104 -1092 0
-1104 -1103 0
1104 1092 1103 0
-1105 1089 0
-1105 -1104 0
1105 -1089 1104 0
-1106 -1088 0
-1106 -1105 0
1106 1088 1105 0
-1107 1106 -1085 0
-1107 -1106 1085 0
1107 1106 1085 0
1107 -1106 -1085 0
-1108 24 0
-1108 893 0
1108 -24 -893 0
-1109 -1108 -1107 0
-1109 1108 1107 0
1109 -1108 1107 0
1109 1108 -1107 0
-1110 1104 -1089 0
-1110 -1104 1089 0
1110 1104 1089 0
1110 -1104 -1089 0
-1111 24 0
-1111 898 0
1111 -24 -898 0
-1112 1110 0
-1112 1111 0
1112 -1110 -1111 0
-1113 -1111 -1110 0
-1113 1111 1110 0
1113 -1111 1110 0
1113 1111 -1110 0
-1114 1102 -1093 0
-1114 -1102 1093 0
1114 1102 1093 0
1114 -1102 -1093 0
-1115 24 0
-1115 903 0
1115 -24 -903 0
-1116 1114 0
-1116 1115 0
1116 -1114 -1115 0
-1117 -1115 -1114 0
-1117 1115 1114 0
1117 -1115 1114 0
1117 1115 -1114 0
-1118 -1100 -1097 0
-1118 1100 1097 0
1118 -1100 1097 0
1118 1100 -1097 0
-1119 24 0
-1119 908 0
1119 -24 -908 0
-1120 1118 0
-1120 1119 0
1120 -1118 -1119 0
-1121 1117 0
-1121 1120 0
1121 -1117 -1120 0
-1122 -1116 0
-1122 -1121 0
1122 1116 1121 0
-1123 1113 0
-1123 -1122 0
1123 -1113 1122 0
-1124 -1112 0
-1124 -1123 0
1124 1112 1123 0
-1125 1124 -1109 0
-1125 -1124 1109 0
1125 1124 1109 0
1125 -1124 -1109 0
-1126 23 0
-1126 898 0
1126 -23 -898 0
-1127 -1126 -1125 0
-1127 1126 1125 0
1127 -1126 1125 0
1127 1126 -1125 0
-1128 1122 -1113 0
-1128 -1122 1113 0
1128 1122 1113 0
1128 -1122 -1113 0
-1129 23 0
-1129 903 0
1129 -23 -903 0
-1130 1128 0
-1130 1129 0
1130 -1128 -1129 0
-1131 -1129 -1128 0
-1131 1129 1128 0
1131 -1129 1128 0
1131 1129 -1128 0
-1132 -1120 -1117 0
-1132 1120 1117 0
1132 -1120 1117 0
1132 1120 -1117 0
-1133 23 0
-1133 908 0
1133 -23 -908 0
-1134 1132 0
-1134 1133 0
1134 -1132 -1133 0
-1135 1131 0
-1135 1134 0
1135 -1131 -1134 0
-1136 -1130 0
-1136 -1135 0
1136 1130 1135 0
-1137 1136 -1127 0
-1137 -1136 1127 0
1137 1136 1127 0
1137 -1136 -1127 0
-1138 22 0
-1138 903 0
1138 -22 -903 0
-1139 -1138 -1137 0
-1139 1138 1137 0
1139 -1138 1137 0
1139 1138 -1137 0
-1140 -1134 -1131 0
-1140 1134 1131 0
1140 -1134 1131 0
1140 1134 -1131 0
-1141 22 0
-1141 908 0
1141 -22 -908 0
-1142 1140 0
-1142 1141 0
1142 -1140 -1141 0
-1143 -1142 -1139 0
-1143 1142 1139 0
1143 -1142 1139 0
1143 1142 -1139 0
-1144 21 0
-1144 908 0
1144 -21 -908 0
-1145 -1144 -1143 0
-1145 1144 1143 0
1145 -1144 1143 0
1145 1144 -1143 0
1146 1145 589 0
1146 -1145 -589 0
-1147 -547 -546 0
-1147 547 546 0
1147 -547 546 0
1147 547 -546 0
-1148 -1141 -1140 0
-1148 1141 1140 0
1148 -1141 1140 0
1148 1141 -1140 0
1149 1148 1147 0
1149 -1148 -1147 0
1150 -1146 -1149 0
-1151 -488 -487 0
-1151 488 487 0
1151 -488 487 0
1151 488 -487 0
-1152 -1133 -1132 0
-1152 1133 1132 0
1152 -1133 1132 0
1152 1133 -1132 0
1153 1152 1151 0
1153 -1152 -1151 0
1154 -1150 -1153 0
-1155 -429 -428 0
-1155 429 428 0
1155 -429 428 0
1155 429 -428 0
-1156 -1119 -1118 0
-1156 1119 1118 0
1156 -1119 1118 0
1156 1119 -1118 0
1157 1156 1155 0
1157 -1156 -1155 0
1158 -1154 -1157 0
-1159 -370 -369 0
-1159 370 369 0
1159 -370 369 0
1159 370 -369 0
-1160 -1099 -1098 0
-1160 1099 1098 0
1160 -1099 1098 0
1160 1099 -1098 0
1161 1160 1159 0
1161 -1160 -1159 0
1162 -1158 -1161 0
-1163 -311 -310 0
-1163 311 310 0
1163 -311 310 0
1163 311 -310 0
-1164 -1073 -1072 0
-1164 1073 1072 0
1164 -1073 1072 0
1164 1073 -1072 0
1165 1164 1163 0
1165 -1164 -1163 0
1166 -1162 -1165 0
-1167 -252 -251 0
-1167 252 251 0
1167 -252 251 0
1167 252 -251 0
-1168 -1041 -1040 0
-1168 1041 1040 0
1168 -1041 1040 0
1168 1041 -1040 0
1169 1168 1167 0
1169 -1168 -1167 0
1170 -1166 -1169 0
-1171 -193 -192 0
-1171 193 192 0
1171 -193 192 0
1171 193 -192 0
-1172 -1003 -1002 0
-1172 1003 1002 0
1172 -1003 1002 0
1172 1003 -1002 0
1173 1172 1171 0
1173 -1172 -1171 0
1174 -1170 -1173 0
-1175 -134 -133 0
-1175 134 133 0
1175 -134 133 0
1175 134 -133 0
-1176 -959 -958 0
-1176 959 958 0
1176 -959 958 0
1176 959 -958 0
1177 1176 1175 0
1177 -1176 -1175 0
1178 -1174 -1177 0
-1179 -75 -74 0
-1179 75 74 0
1179 -75 74 0
1179 75 -74 0
-1180 -909 -907 0
-1180 909 907 0
1180 -909 907 0
1180 909 -907 0
1181 1180 1179 0
1181 -1180 -1179 0
1182 -1178 -1181 0
-1183 33 0
-1183 34 0
1183 -33 -34 0
-1184 32 0
-1184 908 0
1184 -32 -908 0
1185 1184 1183 0
1185 -1184 -1183 0
1186 -1182 -1185 0
1187 -29 -30 0
1188 -28 -1187 0
1189 -27 -1188 0
1190 -26 -1189 0
-1191 -25 0
-1191 -1190 0
-1192 -24 0
-1192 1191 0
-1193 -23 0
-1193 1192 0
-1194 -22 0
-1194 1193 0
1195 -21 1194 0
1196 -9 -10 0
1197 -8 -1196 0
1198 -7 -1197 0
1199 -6 -1198 0
-1200 -5 0
-1200 -1199 0
-1201 -4 0
-1201 1200 0
-1202 -3 0
-1202 1201 0
-1203 -2 0
-1203 1202 0
1204 -1 1203 0
1205 -19 -20 0
1206 -18 -1205 0
1207 -17 -1206 0
1208 -16 -1207 0
-1209 -15 0
-1209 -1208 0
-1210 -14 0
-1210 1209 0
-1211 -13 0
-1211 1210 0
-1212 -12 0
-1212 1211 0
1213 -11 1212 0
-1214 -1204 0
-1214 -1213 0
-1215 -1195 0
-1215 1214 0
-1216 -1186 0
-1216 1215 0
1216 0
