p cnf 1455 4514
65 49 1 0
65 -49 -1 0
66 50 34 0
66 -50 -34 0
67 -65 -66 0
68 51 35 0
68 -51 -35 0
69 -67 -68 0
70 52 36 0
70 -52 -36 0
71 -69 -70 0
72 53 37 0
72 -53 -37 0
73 -71 -72 0
74 54 38 0
74 -54 -38 0
75 -73 -74 0
76 55 39 0
76 -55 -39 0
77 -75 -76 0
78 56 40 0
78 -56 -40 0
79 -77 -78 0
80 57 41 0
80 -57 -41 0
81 -79 -80 0
82 58 42 0
82 -58 -42 0
83 -81 -82 0
84 59 43 0
84 -59 -43 0
85 -83 -84 0
86 60 44 0
86 -60 -44 0
87 -85 -86 0
88 61 45 0
88 -61 -45 0
89 -87 -88 0
90 62 46 0
90 -62 -46 0
91 -89 -90 0
92 63 47 0
92 -63 -47 0
93 -91 -92 0
94 64 48 0
94 -64 -48 0
95 -93 -94 0
-96 2 0
-96 3 0
96 -2 -3 0
-97 4 0
-97 5 0
97 -4 -5 0
-98 -97 -96 0
-98 97 96 0
98 -97 96 0
98 97 -96 0
-99 3 0
-99 4 0
99 -3 -4 0
-100 5 0
-100 6 0
100 -5 -6 0
-101 99 0
-101 100 0
101 -99 -100 0
-102 -100 -99 0
-102 100 99 0
102 -100 99 0
102 100 -99 0
-103 3 0
-103 6 0
103 -3 -6 0
-104 5 0
-104 7 0
104 -5 -7 0
-105 103 0
-105 104 0
105 -103 -104 0
-106 -104 -103 0
-106 104 103 0
106 -104 103 0
106 104 -103 0
-107 3 0
-107 7 0
107 -3 -7 0
-108 5 0
-108 8 0
108 -5 -8 0
-109 107 0
-109 108 0
109 -107 -108 0
-110 -108 -107 0
-110 108 107 0
110 -108 107 0
110 108 -107 0
-111 3 0
-111 8 0
111 -3 -8 0
-112 5 0
-112 9 0
112 -5 -9 0
-113 111 0
-113 112 0
113 -111 -112 0
-114 -112 -111 0
-114 112 111 0
114 -112 111 0
114 112 -111 0
-115 3 0
-115 9 0
115 -3 -9 0
-116 5 0
-116 10 0
116 -5 -10 0
-117 115 0
-117 116 0
117 -115 -116 0
-118 -116 -115 0
-118 116 115 0
118 -116 115 0
118 116 -115 0
-119 3 0
-119 10 0
119 -3 -10 0
-120 5 0
-120 11 0
120 -5 -11 0
-121 119 0
-121 120 0
121 -119 -120 0
-122 -120 -119 0
-122 120 119 0
122 -120 119 0
122 120 -119 0
-123 3 0
-123 11 0
123 -3 -11 0
-124 5 0
-124 12 0
124 -5 -12 0
-125 123 0
-125 124 0
125 -123 -124 0
-126 -124 -123 0
-126 124 123 0
126 -124 123 0
126 124 -123 0
-127 3 0
-127 12 0
127 -3 -12 0
-128 5 0
-128 13 0
128 -5 -13 0
-129 127 0
-129 128 0
129 -127 -128 0
-130 -128 -127 0
-130 128 127 0
130 -128 127 0
130 128 -127 0
-131 3 0
-131 13 0
131 -3 -13 0
-132 5 0
-132 14 0
132 -5 -14 0
-133 131 0
-133 132 0
133 -131 -132 0
-134 -132 -131 0
-134 132 131 0
134 -132 131 0
134 132 -131 0
-135 3 0
-135 14 0
135 -3 -14 0
-136 5 0
-136 15 0
136 -5 -15 0
-137 135 0
-137 136 0
137 -135 -136 0
-138 -136 -135 0
-138 136 135 0
138 -136 135 0
138 136 -135 0
-139 3 0
-139 15 0
139 -3 -15 0
-140 5 0
-140 16 0
140 -5 -16 0
-141 139 0
-141 140 0
141 -139 -140 0
-142 -140 -139 0
-142 140 139 0
142 -140 139 0
142 140 -139 0
-143 3 0
-143 16 0
143 -3 -16 0
-144 5 0
-144 17 0
144 -5 -17 0
-145 143 0
-145 144 0
145 -143 -144 0
-146 -144 -143 0
-146 144 143 0
146 -144 143 0
146 144 -143 0
-147 3 0
-147 17 0
147 -3 -17 0
-148 5 0
-148 18 0
148 -5 -18 0
-149 147 0
-149 148 0
149 -147 -148 0
-150 -148 -147 0
-150 148 147 0
150 -148 147 0
150 148 -147 0
-151 3 0
-151 18 0
151 -3 -18 0
-152 5 0
-152 19 0
152 -5 -19 0
-153 151 0
-153 152 0
153 -151 -152 0
-154 150 0
-154 153 0
154 -150 -153 0
-155 -149 0
-155 -154 0
155 149 154 0
-156 146 0
-156 -155 0
156 -146 155 0
-157 -145 0
-157 -156 0
157 145 156 0
-158 142 0
-158 -157 0
158 -142 157 0
-159 -141 0
-159 -158 0
159 141 158 0
-160 138 0
-160 -159 0
160 -138 159 0
-161 -137 0
-161 -160 0
161 137 160 0
-162 134 0
-162 -161 0
162 -134 161 0
-163 -133 0
-163 -162 0
163 133 162 0
-164 130 0
-164 -163 0
164 -130 163 0
-165 -129 0
-165 -164 0
165 129 164 0
-166 126 0
-166 -165 0
166 -126 165 0
-167 -125 0
-167 -166 0
167 125 166 0
-168 122 0
-168 -167 0
168 -122 167 0
-169 -121 0
-169 -168 0
169 121 168 0
-170 118 0
-170 -169 0
170 -118 169 0
-171 -117 0
-171 -170 0
171 117 170 0
-172 114 0
-172 -171 0
172 -114 171 0
-173 -113 0
-173 -172 0
173 113 172 0
-174 110 0
-174 -173 0
174 -110 173 0
-175 -109 0
-175 -174 0
175 109 174 0
-176 106 0
-176 -175 0
176 -106 175 0
-177 -105 0
-177 -176 0
177 105 176 0
-178 102 0
-178 -177 0
178 -102 177 0
-179 -101 0
-179 -178 0
179 101 178 0
-180 179 -98 0
-180 -179 98 0
180 179 98 0
180 -179 -98 0
-181 6 0
-181 20 0
181 -6 -20 0
-182 -181 -180 0
-182 181 180 0
182 -181 180 0
182 181 -180 0
-183 177 -102 0
-183 -177 102 0
183 177 102 0
183 -177 -102 0
-184 7 0
-184 20 0
184 -7 -20 0
-185 183 0
-185 184 0
185 -183 -184 0
-186 -184 -183 0
-186 184 183 0
186 -184 183 0
186 184 -183 0
-187 175 -106 0
-187 -175 106 0
187 175 106 0
187 -175 -106 0
-188 8 0
-188 20 0
188 -8 -20 0
-189 187 0
-189 188 0
189 -187 -188 0
-190 -188 -187 0
-190 188 187 0
190 -188 187 0
190 188 -187 0
-191 173 -110 0
-191 -173 110 0
191 173 110 0
191 -173 -110 0
-192 9 0
-192 20 0
192 -9 -20 0
-193 191 0
-193 192 0
193 -191 -192 0
-194 -192 -191 0
-194 192 191 0
194 -192 191 0
194 192 -191 0
-195 171 -114 0
-195 -171 114 0
195 171 114 0
195 -171 -114 0
-196 10 0
-196 20 0
196 -10 -20 0
-197 195 0
-197 196 0
197 -195 -196 0
-198 -196 -195 0
-198 196 195 0
198 -196 195 0
198 196 -195 0
-199 169 -118 0
-199 -169 118 0
199 169 118 0
199 -169 -118 0
-200 11 0
-200 20 0
200 -11 -20 0
-201 199 0
-201 200 0
201 -199 -200 0
-202 -200 -199 0
-202 200 199 0
202 -200 199 0
202 200 -199 0
-203 167 -122 0
-203 -167 122 0
203 167 122 0
203 -167 -122 0
-204 12 0
-204 20 0
204 -12 -20 0
-205 203 0
-205 204 0
205 -203 -204 0
-206 -204 -203 0
-206 204 203 0
206 -204 203 0
206 204 -203 0
-207 165 -126 0
-207 -165 126 0
207 165 126 0
207 -165 -126 0
-208 13 0
-208 20 0
208 -13 -20 0
-209 207 0
-209 208 0
209 -207 -208 0
-210 -208 -207 0
-210 208 207 0
210 -208 207 0
210 208 -207 0
-211 163 -130 0
-211 -163 130 0
211 163 130 0
211 -163 -130 0
-212 14 0
-212 20 0
212 -14 -20 0
-213 211 0
-213 212 0
213 -211 -212 0
-214 -212 -211 0
-214 212 211 0
214 -212 211 0
214 212 -211 0
-215 161 -134 0
-215 -161 134 0
215 161 134 0
215 -161 -134 0
-216 15 0
-216 20 0
216 -15 -20 0
-217 215 0
-217 216 0
217 -215 -216 0
-218 -216 -215 0
-218 216 215 0
218 -216 215 0
218 216 -215 0
-219 159 -138 0
-219 -159 138 0
219 159 138 0
219 -159 -138 0
-220 16 0
-220 20 0
220 -16 -20 0
-221 219 0
-221 220 0
221 -219 -220 0
-222 -220 -219 0
-222 220 219 0
222 -220 219 0
222 220 -219 0
-223 157 -142 0
-223 -157 142 0
223 157 142 0
223 -157 -142 0
-224 17 0
-224 20 0
224 -17 -20 0
-225 223 0
-225 224 0
225 -223 -224 0
-226 -224 -223 0
-226 224 223 0
226 -224 223 0
226 224 -223 0
-227 155 -146 0
-227 -155 146 0
227 155 146 0
227 -155 -146 0
-228 18 0
-228 20 0
228 -18 -20 0
-229 227 0
-229 228 0
229 -227 -228 0
-230 -228 -227 0
-230 228 227 0
230 -228 227 0
230 228 -227 0
-231 -153 -150 0
-231 153 150 0
231 -153 150 0
231 153 -150 0
-232 19 0
-232 20 0
232 -19 -20 0
-233 231 0
-233 232 0
233 -231 -232 0
-234 230 0
-234 233 0
234 -230 -233 0
-235 -229 0
-235 -234 0
235 229 234 0
-236 226 0
-236 -235 0
236 -226 235 0
-237 -225 0
-237 -236 0
237 225 236 0
-238 222 0
-238 -237 0
238 -222 237 0
-239 -221 0
-239 -238 0
239 221 238 0
-240 218 0
-240 -239 0
240 -218 239 0
-241 -217 0
-241 -240 0
241 217 240 0
-242 214 0
-242 -241 0
242 -214 241 0
-243 -213 0
-243 -242 0
243 213 242 0
-244 210 0
-244 -243 0
244 -210 243 0
-245 -209 0
-245 -244 0
245 209 244 0
-246 206 0
-246 -245 0
246 -206 245 0
-247 -205 0
-247 -246 0
247 205 246 0
-248 202 0
-248 -247 0
248 -202 247 0
-249 -201 0
-249 -248 0
249 201 248 0
-250 198 0
-250 -249 0
250 -198 249 0
-251 -197 0
-251 -250 0
251 197 250 0
-252 194 0
-252 -251 0
252 -194 251 0
-253 -193 0
-253 -252 0
253 193 252 0
-254 190 0
-254 -253 0
254 -190 253 0
-255 -189 0
-255 -254 0
255 189 254 0
-256 186 0
-256 -255 0
256 -186 255 0
-257 -185 0
-257 -256 0
257 185 256 0
-258 257 -182 0
-258 -257 182 0
258 257 182 0
258 -257 -182 0
-259 7 0
-259 21 0
259 -7 -21 0
-260 -259 -258 0
-260 259 258 0
260 -259 258 0
260 259 -258 0
-261 255 -186 0
-261 -255 186 0
261 255 186 0
261 -255 -186 0
-262 8 0
-262 21 0
262 -8 -21 0
-263 261 0
-263 262 0
263 -261 -262 0
-264 -262 -261 0
-264 262 261 0
264 -262 261 0
264 262 -261 0
-265 253 -190 0
-265 -253 190 0
265 253 190 0
265 -253 -190 0
-266 9 0
-266 21 0
266 -9 -21 0
-267 265 0
-267 266 0
267 -265 -266 0
-268 -266 -265 0
-268 266 265 0
268 -266 265 0
268 266 -265 0
-269 251 -194 0
-269 -251 194 0
269 251 194 0
269 -251 -194 0
-270 10 0
-270 21 0
270 -10 -21 0
-271 269 0
-271 270 0
271 -269 -270 0
-272 -270 -269 0
-272 270 269 0
272 -270 269 0
272 270 -269 0
-273 249 -198 0
-273 -249 198 0
273 249 198 0
273 -249 -198 0
-274 11 0
-274 21 0
274 -11 -21 0
-275 273 0
-275 274 0
275 -273 -274 0
-276 -274 -273 0
-276 274 273 0
276 -274 273 0
276 274 -273 0
-277 247 -202 0
-277 -247 202 0
277 247 202 0
277 -247 -202 0
-278 12 0
-278 21 0
278 -12 -21 0
-279 277 0
-279 278 0
279 -277 -278 0
-280 -278 -277 0
-280 278 277 0
280 -278 277 0
280 278 -277 0
-281 245 -206 0
-281 -245 206 0
281 245 206 0
281 -245 -206 0
-282 13 0
-282 21 0
282 -13 -21 0
-283 281 0
-283 282 0
283 -281 -282 0
-284 -282 -281 0
-284 282 281 0
284 -282 281 0
284 282 -281 0
-285 243 -210 0
-285 -243 210 0
285 243 210 0
285 -243 -210 0
-286 14 0
-286 21 0
286 -14 -21 0
-287 285 0
-287 286 0
287 -285 -286 0
-288 -286 -285 0
-288 286 285 0
288 -286 285 0
288 286 -285 0
-289 241 -214 0
-289 -241 214 0
289 241 214 0
289 -241 -214 0
-290 15 0
-290 21 0
290 -15 -21 0
-291 289 0
-291 290 0
291 -289 -290 0
-292 -290 -289 0
-292 290 289 0
292 -290 289 0
292 290 -289 0
-293 239 -218 0
-293 -239 218 0
293 239 218 0
293 -239 -218 0
-294 16 0
-294 21 0
294 -16 -21 0
-295 293 0
-295 294 0
295 -293 -294 0
-296 -294 -293 0
-296 294 293 0
296 -294 293 0
296 294 -293 0
-297 237 -222 0
-297 -237 222 0
297 237 222 0
297 -237 -222 0
-298 17 0
-298 21 0
298 -17 -21 0
-299 297 0
-299 298 0
299 -297 -298 0
-300 -298 -297 0
-300 298 297 0
300 -298 297 0
300 298 -297 0
-301 235 -226 0
-301 -235 226 0
301 235 226 0
301 -235 -226 0
-302 18 0
-302 21 0
302 -18 -21 0
-303 301 0
-303 302 0
303 -301 -302 0
-304 -302 -301 0
-304 302 301 0
304 -302 301 0
304 302 -301 0
-305 -233 -230 0
-305 233 230 0
305 -233 230 0
305 233 -230 0
-306 19 0
-306 21 0
306 -19 -21 0
-307 305 0
-307 306 0
307 -305 -306 0
-308 304 0
-308 307 0
308 -304 -307 0
-309 -303 0
-309 -308 0
309 303 308 0
-310 300 0
-310 -309 0
310 -300 309 0
-311 -299 0
-311 -310 0
311 299 310 0
-312 296 0
-312 -311 0
312 -296 311 0
-313 -295 0
-313 -312 0
313 295 312 0
-314 292 0
-314 -313 0
314 -292 313 0
-315 -291 0
-315 -314 0
315 291 314 0
-316 288 0
-316 -315 0
316 -288 315 0
-317 -287 0
-317 -316 0
317 287 316 0
-318 284 0
-318 -317 0
318 -284 317 0
-319 -283 0
-319 -318 0
319 283 318 0
-320 280 0
-320 -319 0
320 -280 319 0
-321 -279 0
-321 -320 0
321 279 320 0
-322 276 0
-322 -321 0
322 -276 321 0
-323 -275 0
-323 -322 0
323 275 322 0
-324 272 0
-324 -323 0
324 -272 323 0
-325 -271 0
-325 -324 0
325 271 324 0
-326 268 0
-326 -325 0
326 -268 325 0
-327 -267 0
-327 -326 0
327 267 326 0
-328 264 0
-328 -327 0
328 -264 327 0
-329 -263 0
-329 -328 0
329 263 328 0
-330 329 -260 0
-330 -329 260 0
330 329 260 0
330 -329 -260 0
-331 8 0
-331 22 0
331 -8 -22 0
-332 -331 -330 0
-332 331 330 0
332 -331 330 0
332 331 -330 0
-333 327 -264 0
-333 -327 264 0
333 327 264 0
333 -327 -264 0
-334 9 0
-334 22 0
334 -9 -22 0
-335 333 0
-335 334 0
335 -333 -334 0
-336 -334 -333 0
-336 334 333 0
336 -334 333 0
336 334 -333 0
-337 325 -268 0
-337 -325 268 0
337 325 268 0
337 -325 -268 0
-338 10 0
-338 22 0
338 -10 -22 0
-339 337 0
-339 338 0
339 -337 -338 0
-340 -338 -337 0
-340 338 337 0
340 -338 337 0
340 338 -337 0
-341 323 -272 0
-341 -323 272 0
341 323 272 0
341 -323 -272 0
-342 11 0
-342 22 0
342 -11 -22 0
-343 341 0
-343 342 0
343 -341 -342 0
-344 -342 -341 0
-344 342 341 0
344 -342 341 0
344 342 -341 0
-345 321 -276 0
-345 -321 276 0
345 321 276 0
345 -321 -276 0
-346 12 0
-346 22 0
346 -12 -22 0
-347 345 0
-347 346 0
347 -345 -346 0
-348 -346 -345 0
-348 346 345 0
348 -346 345 0
348 346 -345 0
-349 319 -280 0
-349 -319 280 0
349 319 280 0
349 -319 -280 0
-350 13 0
-350 22 0
350 -13 -22 0
-351 349 0
-351 350 0
351 -349 -350 0
-352 -350 -349 0
-352 350 349 0
352 -350 349 0
352 350 -349 0
-353 317 -284 0
-353 -317 284 0
353 317 284 0
353 -317 -284 0
-354 14 0
-354 22 0
354 -14 -22 0
-355 353 0
-355 354 0
355 -353 -354 0
-356 -354 -353 0
-356 354 353 0
356 -354 353 0
356 354 -353 0
-357 315 -288 0
-357 -315 288 0
357 315 288 0
357 -315 -288 0
-358 15 0
-358 22 0
358 -15 -22 0
-359 357 0
-359 358 0
359 -357 -358 0
-360 -358 -357 0
-360 358 357 0
360 -358 357 0
360 358 -357 0
-361 313 -292 0
-361 -313 292 0
361 313 292 0
361 -313 -292 0
-362 16 0
-362 22 0
362 -16 -22 0
-363 361 0
-363 362 0
363 -361 -362 0
-364 -362 -361 0
-364 362 361 0
364 -362 361 0
364 362 -361 0
-365 311 -296 0
-365 -311 296 0
365 311 296 0
365 -311 -296 0
-366 17 0
-366 22 0
366 -17 -22 0
-367 365 0
-367 366 0
367 -365 -366 0
-368 -366 -365 0
-368 366 365 0
368 -366 365 0
368 366 -365 0
-369 309 -300 0
-369 -309 300 0
369 309 300 0
369 -309 -300 0
-370 18 0
-370 22 0
370 -18 -22 0
-371 369 0
-371 370 0
371 -369 -370 0
-372 -370 -369 0
-372 370 369 0
372 -370 369 0
372 370 -369 0
-373 -307 -304 0
-373 307 304 0
373 -307 304 0
373 307 -304 0
-374 19 0
-374 22 0
374 -19 -22 0
-375 373 0
-375 374 0
375 -373 -374 0
-376 372 0
-376 375 0
376 -372 -375 0
-377 -371 0
-377 -376 0
377 371 376 0
-378 368 0
-378 -377 0
378 -368 377 0
-379 -367 0
-379 -378 0
379 367 378 0
-380 364 0
-380 -379 0
380 -364 379 0
-381 -363 0
-381 -380 0
381 363 380 0
-382 360 0
-382 -381 0
382 -360 381 0
-383 -359 0
-383 -382 0
383 359 382 0
-384 356 0
-384 -383 0
384 -356 383 0
-385 -355 0
-385 -384 0
385 355 384 0
-386 352 0
-386 -385 0
386 -352 385 0
-387 -351 0
-387 -386 0
387 351 386 0
-388 348 0
-388 -387 0
388 -348 387 0
-389 -347 0
-389 -388 0
389 347 388 0
-390 344 0
-390 -389 0
390 -344 389 0
-391 -343 0
-391 -390 0
391 343 390 0
-392 340 0
-392 -391 0
392 -340 391 0
-393 -339 0
-393 -392 0
393 339 392 0
-394 336 0
-394 -393 0
394 -336 393 0
-395 -335 0
-395 -394 0
395 335 394 0
-396 395 -332 0
-396 -395 332 0
396 395 332 0
396 -395 -332 0
-397 9 0
-397 23 0
397 -9 -23 0
-398 -397 -396 0
-398 397 396 0
398 -397 396 0
398 397 -396 0
-399 393 -336 0
-399 -393 336 0
399 393 336 0
399 -393 -336 0
-400 10 0
-400 23 0
400 -10 -23 0
-401 399 0
-401 400 0
401 -399 -400 0
-402 -400 -399 0
-402 400 399 0
402 -400 399 0
402 400 -399 0
-403 391 -340 0
-403 -391 340 0
403 391 340 0
403 -391 -340 0
-404 11 0
-404 23 0
404 -11 -23 0
-405 403 0
-405 404 0
405 -403 -404 0
-406 -404 -403 0
-406 404 403 0
406 -404 403 0
406 404 -403 0
-407 389 -344 0
-407 -389 344 0
407 389 344 0
407 -389 -344 0
-408 12 0
-408 23 0
408 -12 -23 0
-409 407 0
-409 408 0
409 -407 -408 0
-410 -408 -407 0
-410 408 407 0
410 -408 407 0
410 408 -407 0
-411 387 -348 0
-411 -387 348 0
411 387 348 0
411 -387 -348 0
-412 13 0
-412 23 0
412 -13 -23 0
-413 411 0
-413 412 0
413 -411 -412 0
-414 -412 -411 0
-414 412 411 0
414 -412 411 0
414 412 -411 0
-415 385 -352 0
-415 -385 352 0
415 385 352 0
415 -385 -352 0
-416 14 0
-416 23 0
416 -14 -23 0
-417 415 0
-417 416 0
417 -415 -416 0
-418 -416 -415 0
-418 416 415 0
418 -416 415 0
418 416 -415 0
-419 383 -356 0
-419 -383 356 0
419 383 356 0
419 -383 -356 0
-420 15 0
-420 23 0
420 -15 -23 0
-421 419 0
-421 420 0
421 -419 -420 0
-422 -420 -419 0
-422 420 419 0
422 -420 419 0
422 420 -419 0
-423 381 -360 0
-423 -381 360 0
423 381 360 0
423 -381 -360 0
-424 16 0
-424 23 0
424 -16 -23 0
-425 423 0
-425 424 0
425 -423 -424 0
-426 -424 -423 0
-426 424 423 0
426 -424 423 0
426 424 -423 0
-427 379 -364 0
-427 -379 364 0
427 379 364 0
427 -379 -364 0
-428 17 0
-428 23 0
428 -17 -23 0
-429 427 0
-429 428 0
429 -427 -428 0
-430 -428 -427 0
-430 428 427 0
430 -428 427 0
430 428 -427 0
-431 377 -368 0
-431 -377 368 0
431 377 368 0
431 -377 -368 0
-432 18 0
-432 23 0
432 -18 -23 0
-433 431 0
-433 432 0
433 -431 -432 0
-434 -432 -431 0
-434 432 431 0
434 -432 431 0
434 432 -431 0
-435 -375 -372 0
-435 375 372 0
435 -375 372 0
435 375 -372 0
-436 19 0
-436 23 0
436 -19 -23 0
-437 435 0
-437 436 0
437 -435 -436 0
-438 434 0
-438 437 0
438 -434 -437 0
-439 -433 0
-439 -438 0
439 433 438 0
-440 430 0
-440 -439 0
440 -430 439 0
-441 -429 0
-441 -440 0
441 429 440 0
-442 426 0
-442 -441 0
442 -426 441 0
-443 -425 0
-443 -442 0
443 425 442 0
-444 422 0
-444 -443 0
444 -422 443 0
-445 -421 0
-445 -444 0
445 421 444 0
-446 418 0
-446 -445 0
446 -418 445 0
-447 -417 0
-447 -446 0
447 417 446 0
-448 414 0
-448 -447 0
448 -414 447 0
-449 -413 0
-449 -448 0
449 413 448 0
-450 410 0
-450 -449 0
450 -410 449 0
-451 -409 0
-451 -450 0
451 409 450 0
-452 406 0
-452 -451 0
452 -406 451 0
-453 -405 0
-453 -452 0
453 405 452 0
-454 402 0
-454 -453 0
454 -402 453 0
-455 -401 0
-455 -454 0
455 401 454 0
-456 455 -398 0
-456 -455 398 0
456 455 398 0
456 -455 -398 0
-457 10 0
-457 24 0
457 -10 -24 0
-458 -457 -456 0
-458 457 456 0
458 -457 456 0
458 457 -456 0
-459 453 -402 0
-459 -453 402 0
459 453 402 0
459 -453 -402 0
-460 11 0
-460 24 0
460 -11 -24 0
-461 459 0
-461 460 0
461 -459 -460 0
-462 -460 -459 0
-462 460 459 0
462 -460 459 0
462 460 -459 0
-463 451 -406 0
-463 -451 406 0
463 451 406 0
463 -451 -406 0
-464 12 0
-464 24 0
464 -12 -24 0
-465 463 0
-465 464 0
465 -463 -464 0
-466 -464 -463 0
-466 464 463 0
466 -464 463 0
466 464 -463 0
-467 449 -410 0
-467 -449 410 0
467 449 410 0
467 -449 -410 0
-468 13 0
-468 24 0
468 -13 -24 0
-469 467 0
-469 468 0
469 -467 -468 0
-470 -468 -467 0
-470 468 467 0
470 -468 467 0
470 468 -467 0
-471 447 -414 0
-471 -447 414 0
471 447 414 0
471 -447 -414 0
-472 14 0
-472 24 0
472 -14 -24 0
-473 471 0
-473 472 0
473 -471 -472 0
-474 -472 -471 0
-474 472 471 0
474 -472 471 0
474 472 -471 0
-475 445 -418 0
-475 -445 418 0
475 445 418 0
475 -445 -418 0
-476 15 0
-476 24 0
476 -15 -24 0
-477 475 0
-477 476 0
477 -475 -476 0
-478 -476 -475 0
-478 476 475 0
478 -476 475 0
478 476 -475 0
-479 443 -422 0
-479 -443 422 0
479 443 422 0
479 -443 -422 0
-480 16 0
-480 24 0
480 -16 -24 0
-481 479 0
-481 480 0
481 -479 -480 0
-482 -480 -479 0
-482 480 479 0
482 -480 479 0
482 480 -479 0
-483 441 -426 0
-483 -441 426 0
483 441 426 0
483 -441 -426 0
-484 17 0
-484 24 0
484 -17 -24 0
-485 483 0
-485 484 0
485 -483 -484 0
-486 -484 -483 0
-486 484 483 0
486 -484 483 0
486 484 -483 0
-487 439 -430 0
-487 -439 430 0
487 439 430 0
487 -439 -430 0
-488 18 0
-488 24 0
488 -18 -24 0
-489 487 0
-489 488 0
489 -487 -488 0
-490 -488 -487 0
-490 488 487 0
490 -488 487 0
490 488 -487 0
-491 -437 -434 0
-491 437 434 0
491 -437 434 0
491 437 -434 0
-492 19 0
-492 24 0
492 -19 -24 0
-493 491 0
-493 492 0
493 -491 -492 0
-494 490 0
-494 493 0
494 -490 -493 0
-495 -489 0
-495 -494 0
495 489 494 0
-496 486 0
-496 -495 0
496 -486 495 0
-497 -485 0
-497 -496 0
497 485 496 0
-498 482 0
-498 -497 0
498 -482 497 0
-499 -481 0
-499 -498 0
499 481 498 0
-500 478 0
-500 -499 0
500 -478 499 0
-501 -477 0
-501 -500 0
501 477 500 0
-502 474 0
-502 -501 0
502 -474 501 0
-503 -473 0
-503 -502 0
503 473 502 0
-504 470 0
-504 -503 0
504 -470 503 0
-505 -469 0
-505 -504 0
505 469 504 0
-506 466 0
-506 -505 0
506 -466 505 0
-507 -465 0
-507 -506 0
507 465 506 0
-508 462 0
-508 -507 0
508 -462 507 0
-509 -461 0
-509 -508 0
509 461 508 0
-510 509 -458 0
-510 -509 458 0
510 509 458 0
510 -509 -458 0
-511 11 0
-511 25 0
511 -11 -25 0
-512 -511 -510 0
-512 511 510 0
512 -511 510 0
512 511 -510 0
-513 507 -462 0
-513 -507 462 0
513 507 462 0
513 -507 -462 0
-514 12 0
-514 25 0
514 -12 -25 0
-515 513 0
-515 514 0
515 -513 -514 0
-516 -514 -513 0
-516 514 513 0
516 -514 513 0
516 514 -513 0
-517 505 -466 0
-517 -505 466 0
517 505 466 0
517 -505 -466 0
-518 13 0
-518 25 0
518 -13 -25 0
-519 517 0
-519 518 0
519 -517 -518 0
-520 -518 -517 0
-520 518 517 0
520 -518 517 0
520 518 -517 0
-521 503 -470 0
-521 -503 470 0
521 503 470 0
521 -503 -470 0
-522 14 0
-522 25 0
522 -14 -25 0
-523 521 0
-523 522 0
523 -521 -522 0
-524 -522 -521 0
-524 522 521 0
524 -522 521 0
524 522 -521 0
-525 501 -474 0
-525 -501 474 0
525 501 474 0
525 -501 -474 0
-526 15 0
-526 25 0
526 -15 -25 0
-527 525 0
-527 526 0
527 -525 -526 0
-528 -526 -525 0
-528 526 525 0
528 -526 525 0
528 526 -525 0
-529 499 -478 0
-529 -499 478 0
529 499 478 0
529 -499 -478 0
-530 16 0
-530 25 0
530 -16 -25 0
-531 529 0
-531 530 0
531 -529 -530 0
-532 -530 -529 0
-532 530 529 0
532 -530 529 0
532 530 -529 0
-533 497 -482 0
-533 -497 482 0
533 497 482 0
533 -497 -482 0
-534 17 0
-534 25 0
534 -17 -25 0
-535 533 0
-535 534 0
535 -533 -534 0
-536 -534 -533 0
-536 534 533 0
536 -534 533 0
536 534 -533 0
-537 495 -486 0
-537 -495 486 0
537 495 486 0
537 -495 -486 0
-538 18 0
-538 25 0
538 -18 -25 0
-539 537 0
-539 538 0
539 -537 -538 0
-540 -538 -537 0
-540 538 537 0
540 -538 537 0
540 538 -537 0
-541 -493 -490 0
-541 493 490 0
541 -493 490 0
541 493 -490 0
-542 19 0
-542 25 0
542 -19 -25 0
-543 541 0
-543 542 0
543 -541 -542 0
-544 540 0
-544 543 0
544 -540 -543 0
-545 -539 0
-545 -544 0
545 539 544 0
-546 536 0
-546 -545 0
546 -536 545 0
-547 -535 0
-547 -546 0
547 535 546 0
-548 532 0
-548 -547 0
548 -532 547 0
-549 -531 0
-549 -548 0
549 531 548 0
-550 528 0
-550 -549 0
550 -528 549 0
-551 -527 0
-551 -550 0
551 527 550 0
-552 524 0
-552 -551 0
552 -524 551 0
-553 -523 0
-553 -552 0
553 523 552 0
-554 520 0
-554 -553 0
554 -520 553 0
-555 -519 0
-555 -554 0
555 519 554 0
-556 516 0
-556 -555 0
556 -516 555 0
-557 -515 0
-557 -556 0
557 515 556 0
-558 557 -512 0
-558 -557 512 0
558 557 512 0
558 -557 -512 0
-559 12 0
-559 26 0
559 -12 -26 0
-560 -559 -558 0
-560 559 558 0
560 -559 558 0
560 559 -558 0
-561 555 -516 0
-561 -555 516 0
561 555 516 0
561 -555 -516 0
-562 13 0
-562 26 0
562 -13 -26 0
-563 561 0
-563 562 0
563 -561 -562 0
-564 -562 -561 0
-564 562 561 0
564 -562 561 0
564 562 -561 0
-565 553 -520 0
-565 -553 520 0
565 553 520 0
565 -553 -520 0
-566 14 0
-566 26 0
566 -14 -26 0
-567 565 0
-567 566 0
567 -565 -566 0
-568 -566 -565 0
-568 566 565 0
568 -566 565 0
568 566 -565 0
-569 551 -524 0
-569 -551 524 0
569 551 524 0
569 -551 -524 0
-570 15 0
-570 26 0
570 -15 -26 0
-571 569 0
-571 570 0
571 -569 -570 0
-572 -570 -569 0
-572 570 569 0
572 -570 569 0
572 570 -569 0
-573 549 -528 0
-573 -549 528 0
573 549 528 0
573 -549 -528 0
-574 16 0
-574 26 0
574 -16 -26 0
-575 573 0
-575 574 0
575 -573 -574 0
-576 -574 -573 0
-576 574 573 0
576 -574 573 0
576 574 -573 0
-577 547 -532 0
-577 -547 532 0
577 547 532 0
577 -547 -532 0
-578 17 0
-578 26 0
578 -17 -26 0
-579 577 0
-579 578 0
579 -577 -578 0
-580 -578 -577 0
-580 578 577 0
580 -578 577 0
580 578 -577 0
-581 545 -536 0
-581 -545 536 0
581 545 536 0
581 -545 -536 0
-582 18 0
-582 26 0
582 -18 -26 0
-583 581 0
-583 582 0
583 -581 -582 0
-584 -582 -581 0
-584 582 581 0
584 -582 581 0
584 582 -581 0
-585 -543 -540 0
-585 543 540 0
585 -543 540 0
585 543 -540 0
-586 19 0
-586 26 0
586 -19 -26 0
-587 585 0
-587 586 0
587 -585 -586 0
-588 584 0
-588 587 0
588 -584 -587 0
-589 -583 0
-589 -588 0
589 583 588 0
-590 580 0
-590 -589 0
590 -580 589 0
-591 -579 0
-591 -590 0
591 579 590 0
-592 576 0
-592 -591 0
592 -576 591 0
-593 -575 0
-593 -592 0
593 575 592 0
-594 572 0
-594 -593 0
594 -572 593 0
-595 -571 0
-595 -594 0
595 571 594 0
-596 568 0
-596 -595 0
596 -568 595 0
-597 -567 0
-597 -596 0
597 567 596 0
-598 564 0
-598 -597 0
598 -564 597 0
-599 -563 0
-599 -598 0
599 563 598 0
-600 599 -560 0
-600 -599 560 0
600 599 560 0
600 -599 -560 0
-601 13 0
-601 27 0
601 -13 -27 0
-602 -601 -600 0
-602 601 600 0
602 -601 600 0
602 601 -600 0
-603 597 -564 0
-603 -597 564 0
603 597 564 0
603 -597 -564 0
-604 14 0
-604 27 0
604 -14 -27 0
-605 603 0
-605 604 0
605 -603 -604 0
-606 -604 -603 0
-606 604 603 0
606 -604 603 0
606 604 -603 0
-607 595 -568 0
-607 -595 568 0
607 595 568 0
607 -595 -568 0
-608 15 0
-608 27 0
608 -15 -27 0
-609 607 0
-609 608 0
609 -607 -608 0
-610 -608 -607 0
-610 608 607 0
610 -608 607 0
610 608 -607 0
-611 593 -572 0
-611 -593 572 0
611 593 572 0
611 -593 -572 0
-612 16 0
-612 27 0
612 -16 -27 0
-613 611 0
-613 612 0
613 -611 -612 0
-614 -612 -611 0
-614 612 611 0
614 -612 611 0
614 612 -611 0
-615 591 -576 0
-615 -591 576 0
615 591 576 0
615 -591 -576 0
-616 17 0
-616 27 0
616 -17 -27 0
-617 615 0
-617 616 0
617 -615 -616 0
-618 -616 -615 0
-618 616 615 0
618 -616 615 0
618 616 -615 0
-619 589 -580 0
-619 -589 580 0
619 589 580 0
619 -589 -580 0
-620 18 0
-620 27 0
620 -18 -27 0
-621 619 0
-621 620 0
621 -619 -620 0
-622 -620 -619 0
-622 620 619 0
622 -620 619 0
622 620 -619 0
-623 -587 -584 0
-623 587 584 0
623 -587 584 0
623 587 -584 0
-624 19 0
-624 27 0
624 -19 -27 0
-625 623 0
-625 624 0
625 -623 -624 0
-626 622 0
-626 625 0
626 -622 -625 0
-627 -621 0
-627 -626 0
627 621 626 0
-628 618 0
-628 -627 0
628 -618 627 0
-629 -617 0
-629 -628 0
629 617 628 0
-630 614 0
-630 -629 0
630 -614 629 0
-631 -613 0
-631 -630 0
631 613 630 0
-632 610 0
-632 -631 0
632 -610 631 0
-633 -609 0
-633 -632 0
633 609 632 0
-634 606 0
-634 -633 0
634 -606 633 0
-635 -605 0
-635 -634 0
635 605 634 0
-636 635 -602 0
-636 -635 602 0
636 635 602 0
636 -635 -602 0
-637 14 0
-637 28 0
637 -14 -28 0
-638 -637 -636 0
-638 637 636 0
638 -637 636 0
638 637 -636 0
-639 633 -606 0
-639 -633 606 0
639 633 606 0
639 -633 -606 0
-640 15 0
-640 28 0
640 -15 -28 0
-641 639 0
-641 640 0
641 -639 -640 0
-642 -640 -639 0
-642 640 639 0
642 -640 639 0
642 640 -639 0
-643 631 -610 0
-643 -631 610 0
643 631 610 0
643 -631 -610 0
-644 16 0
-644 28 0
644 -16 -28 0
-645 643 0
-645 644 0
645 -643 -644 0
-646 -644 -643 0
-646 644 643 0
646 -644 643 0
646 644 -643 0
-647 629 -614 0
-647 -629 614 0
647 629 614 0
647 -629 -614 0
-648 17 0
-648 28 0
648 -17 -28 0
-649 647 0
-649 648 0
649 -647 -648 0
-650 -648 -647 0
-650 648 647 0
650 -648 647 0
650 648 -647 0
-651 627 -618 0
-651 -627 618 0
651 627 618 0
651 -627 -618 0
-652 18 0
-652 28 0
652 -18 -28 0
-653 651 0
-653 652 0
653 -651 -652 0
-654 -652 -651 0
-654 652 651 0
654 -652 651 0
654 652 -651 0
-655 -625 -622 0
-655 625 622 0
655 -625 622 0
655 625 -622 0
-656 19 0
-656 28 0
656 -19 -28 0
-657 655 0
-657 656 0
657 -655 -656 0
-658 654 0
-658 657 0
658 -654 -657 0
-659 -653 0
-659 -658 0
659 653 658 0
-660 650 0
-660 -659 0
660 -650 659 0
-661 -649 0
-661 -660 0
661 649 660 0
-662 646 0
-662 -661 0
662 -646 661 0
-663 -645 0
-663 -662 0
663 645 662 0
-664 642 0
-664 -663 0
664 -642 663 0
-665 -641 0
-665 -664 0
665 641 664 0
-666 665 -638 0
-666 -665 638 0
666 665 638 0
666 -665 -638 0
-667 15 0
-667 29 0
667 -15 -29 0
-668 -667 -666 0
-668 667 666 0
668 -667 666 0
668 667 -666 0
-669 663 -642 0
-669 -663 642 0
669 663 642 0
669 -663 -642 0
-670 16 0
-670 29 0
670 -16 -29 0
-671 669 0
-671 670 0
671 -669 -670 0
-672 -670 -669 0
-672 670 669 0
672 -670 669 0
672 670 -669 0
-673 661 -646 0
-673 -661 646 0
673 661 646 0
673 -661 -646 0
-674 17 0
-674 29 0
674 -17 -29 0
-675 673 0
-675 674 0
675 -673 -674 0
-676 -674 -673 0
-676 674 673 0
676 -674 673 0
676 674 -673 0
-677 659 -650 0
-677 -659 650 0
677 659 650 0
677 -659 -650 0
-678 18 0
-678 29 0
678 -18 -29 0
-679 677 0
-679 678 0
679 -677 -678 0
-680 -678 -677 0
-680 678 677 0
680 -678 677 0
680 678 -677 0
-681 -657 -654 0
-681 657 654 0
681 -657 654 0
681 657 -654 0
-682 19 0
-682 29 0
682 -19 -29 0
-683 681 0
-683 682 0
683 -681 -682 0
-684 680 0
-684 683 0
684 -680 -683 0
-685 -679 0
-685 -684 0
685 679 684 0
-686 676 0
-686 -685 0
686 -676 685 0
-687 -675 0
-687 -686 0
687 675 686 0
-688 672 0
-688 -687 0
688 -672 687 0
-689 -671 0
-689 -688 0
689 671 688 0
-690 689 -668 0
-690 -689 668 0
690 689 668 0
690 -689 -668 0
-691 16 0
-691 30 0
691 -16 -30 0
-692 -691 -690 0
-692 691 690 0
692 -691 690 0
692 691 -690 0
-693 687 -672 0
-693 -687 672 0
693 687 672 0
693 -687 -672 0
-694 17 0
-694 30 0
694 -17 -30 0
-695 693 0
-695 694 0
695 -693 -694 0
-696 -694 -693 0
-696 694 693 0
696 -694 693 0
696 694 -693 0
-697 685 -676 0
-697 -685 676 0
697 685 676 0
697 -685 -676 0
-698 18 0
-698 30 0
698 -18 -30 0
-699 697 0
-699 698 0
699 -697 -698 0
-700 -698 -697 0
-700 698 697 0
700 -698 697 0
700 698 -697 0
-701 -683 -680 0
-701 683 680 0
701 -683 680 0
701 683 -680 0
-702 19 0
-702 30 0
702 -19 -30 0
-703 701 0
-703 702 0
703 -701 -702 0
-704 700 0
-704 703 0
704 -700 -703 0
-705 -699 0
-705 -704 0
705 699 704 0
-706 696 0
-706 -705 0
706 -696 705 0
-707 -695 0
-707 -706 0
707 695 706 0
-708 707 -692 0
-708 -707 692 0
708 707 692 0
708 -707 -692 0
-709 17 0
-709 31 0
709 -17 -31 0
-710 -709 -708 0
-710 709 708 0
710 -709 708 0
710 709 -708 0
-711 705 -696 0
-711 -705 696 0
711 705 696 0
711 -705 -696 0
-712 18 0
-712 31 0
712 -18 -31 0
-713 711 0
-713 712 0
713 -711 -712 0
-714 -712 -711 0
-714 712 711 0
714 -712 711 0
714 712 -711 0
-715 -703 -700 0
-715 703 700 0
715 -703 700 0
715 703 -700 0
-716 19 0
-716 31 0
716 -19 -31 0
-717 715 0
-717 716 0
717 -715 -716 0
-718 714 0
-718 717 0
718 -714 -717 0
-719 -713 0
-719 -718 0
719 713 718 0
-720 719 -710 0
-720 -719 710 0
720 719 710 0
720 -719 -710 0
-721 18 0
-721 32 0
721 -18 -32 0
-722 -721 -720 0
-722 721 720 0
722 -721 720 0
722 721 -720 0
-723 -717 -714 0
-723 717 714 0
723 -717 714 0
723 717 -714 0
-724 19 0
-724 32 0
724 -19 -32 0
-725 723 0
-725 724 0
725 -723 -724 0
-726 -725 -722 0
-726 725 722 0
726 -725 722 0
726 725 -722 0
-727 19 0
-727 33 0
727 -19 -33 0
-728 -727 -726 0
-728 727 726 0
728 -727 726 0
728 727 -726 0
-729 728 -1 0
-729 -728 1 0
-730 -724 -723 0
-730 724 723 0
730 -724 723 0
730 724 -723 0
-731 730 -34 0
-731 -730 34 0
-732 729 0
-732 731 0
-733 -716 -715 0
-733 716 715 0
733 -716 715 0
733 716 -715 0
-734 733 -35 0
-734 -733 35 0
-735 732 0
-735 734 0
-736 -702 -701 0
-736 702 701 0
736 -702 701 0
736 702 -701 0
-737 736 -36 0
-737 -736 36 0
-738 735 0
-738 737 0
-739 -682 -681 0
-739 682 681 0
739 -682 681 0
739 682 -681 0
-740 739 -37 0
-740 -739 37 0
-741 738 0
-741 740 0
-742 -656 -655 0
-742 656 655 0
742 -656 655 0
742 656 -655 0
-743 742 -38 0
-743 -742 38 0
-744 741 0
-744 743 0
-745 -624 -623 0
-745 624 623 0
745 -624 623 0
745 624 -623 0
-746 745 -39 0
-746 -745 39 0
-747 744 0
-747 746 0
-748 -586 -585 0
-748 586 585 0
748 -586 585 0
748 586 -585 0
-749 748 -40 0
-749 -748 40 0
-750 747 0
-750 749 0
-751 -542 -541 0
-751 542 541 0
751 -542 541 0
751 542 -541 0
-752 751 -41 0
-752 -751 41 0
-753 750 0
-753 752 0
-754 -492 -491 0
-754 492 491 0
754 -492 491 0
754 492 -491 0
-755 754 -42 0
-755 -754 42 0
-756 753 0
-756 755 0
-757 -436 -435 0
-757 436 435 0
757 -436 435 0
757 436 -435 0
-758 757 -43 0
-758 -757 43 0
-759 756 0
-759 758 0
-760 -374 -373 0
-760 374 373 0
760 -374 373 0
760 374 -373 0
-761 760 -44 0
-761 -760 44 0
-762 759 0
-762 761 0
-763 -306 -305 0
-763 306 305 0
763 -306 305 0
763 306 -305 0
-764 763 -45 0
-764 -763 45 0
-765 762 0
-765 764 0
-766 -232 -231 0
-766 232 231 0
766 -232 231 0
766 232 -231 0
-767 766 -46 0
-767 -766 46 0
-768 765 0
-768 767 0
-769 -152 -151 0
-769 152 151 0
769 -152 151 0
769 152 -151 0
-770 769 -47 0
-770 -769 47 0
-771 768 0
-771 770 0
-772 3 0
-772 19 0
772 -3 -19 0
-773 772 -48 0
-773 -772 48 0
-774 771 0
-774 773 0
-775 19 0
-775 33 0
775 -19 -33 0
-776 18 0
-776 32 0
776 -18 -32 0
-777 -776 -775 0
-777 776 775 0
777 -776 775 0
777 776 -775 0
-778 19 0
-778 32 0
778 -19 -32 0
-779 18 0
-779 31 0
779 -18 -31 0
-780 778 0
-780 779 0
780 -778 -779 0
-781 -779 -778 0
-781 779 778 0
781 -779 778 0
781 779 -778 0
-782 19 0
-782 31 0
782 -19 -31 0
-783 18 0
-783 30 0
783 -18 -30 0
-784 782 0
-784 783 0
784 -782 -783 0
-785 -783 -782 0
-785 783 782 0
785 -783 782 0
785 783 -782 0
-786 19 0
-786 30 0
786 -19 -30 0
-787 18 0
-787 29 0
787 -18 -29 0
-788 786 0
-788 787 0
788 -786 -787 0
-789 -787 -786 0
-789 787 786 0
789 -787 786 0
789 787 -786 0
-790 19 0
-790 29 0
790 -19 -29 0
-791 18 0
-791 28 0
791 -18 -28 0
-792 790 0
-792 791 0
792 -790 -791 0
-793 -791 -790 0
-793 791 790 0
793 -791 790 0
793 791 -790 0
-794 19 0
-794 28 0
794 -19 -28 0
-795 18 0
-795 27 0
795 -18 -27 0
-796 794 0
-796 795 0
796 -794 -795 0
-797 -795 -794 0
-797 795 794 0
797 -795 794 0
797 795 -794 0
-798 19 0
-798 27 0
798 -19 -27 0
-799 18 0
-799 26 0
799 -18 -26 0
-800 798 0
-800 799 0
800 -798 -799 0
-801 -799 -798 0
-801 799 798 0
801 -799 798 0
801 799 -798 0
-802 19 0
-802 26 0
802 -19 -26 0
-803 18 0
-803 25 0
803 -18 -25 0
-804 802 0
-804 803 0
804 -802 -803 0
-805 -803 -802 0
-805 803 802 0
805 -803 802 0
805 803 -802 0
-806 19 0
-806 25 0
806 -19 -25 0
-807 18 0
-807 24 0
807 -18 -24 0
-808 806 0
-808 807 0
808 -806 -807 0
-809 -807 -806 0
-809 807 806 0
809 -807 806 0
809 807 -806 0
-810 19 0
-810 24 0
810 -19 -24 0
-811 18 0
-811 23 0
811 -18 -23 0
-812 810 0
-812 811 0
812 -810 -811 0
-813 -811 -810 0
-813 811 810 0
813 -811 810 0
813 811 -810 0
-814 19 0
-814 23 0
814 -19 -23 0
-815 18 0
-815 22 0
815 -18 -22 0
-816 814 0
-816 815 0
816 -814 -815 0
-817 -815 -814 0
-817 815 814 0
817 -815 814 0
817 815 -814 0
-818 19 0
-818 22 0
818 -19 -22 0
-819 18 0
-819 21 0
819 -18 -21 0
-820 818 0
-820 819 0
820 -818 -819 0
-821 -819 -818 0
-821 819 818 0
821 -819 818 0
821 819 -818 0
-822 19 0
-822 21 0
822 -19 -21 0
-823 18 0
-823 20 0
823 -18 -20 0
-824 822 0
-824 823 0
824 -822 -823 0
-825 -823 -822 0
-825 823 822 0
825 -823 822 0
825 823 -822 0
-826 19 0
-826 20 0
826 -19 -20 0
-827 5 0
-827 18 0
827 -5 -18 0
-828 826 0
-828 827 0
828 -826 -827 0
-829 -827 -826 0
-829 827 826 0
829 -827 826 0
829 827 -826 0
-830 5 0
-830 19 0
830 -5 -19 0
-831 3 0
-831 18 0
831 -3 -18 0
-832 830 0
-832 831 0
832 -830 -831 0
-833 829 0
-833 832 0
833 -829 -832 0
-834 -828 0
-834 -833 0
834 828 833 0
-835 825 0
-835 -834 0
835 -825 834 0
-836 -824 0
-836 -835 0
836 824 835 0
-837 821 0
-837 -836 0
837 -821 836 0
-838 -820 0
-838 -837 0
838 820 837 0
-839 817 0
-839 -838 0
839 -817 838 0
-840 -816 0
-840 -839 0
840 816 839 0
-841 813 0
-841 -840 0
841 -813 840 0
-842 -812 0
-842 -841 0
842 812 841 0
-843 809 0
-843 -842 0
843 -809 842 0
-844 -808 0
-844 -843 0
844 808 843 0
-845 805 0
-845 -844 0
845 -805 844 0
-846 -804 0
-846 -845 0
846 804 845 0
-847 801 0
-847 -846 0
847 -801 846 0
-848 -800 0
-848 -847 0
848 800 847 0
-849 797 0
-849 -848 0
849 -797 848 0
-850 -796 0
-850 -849 0
850 796 849 0
-851 793 0
-851 -850 0
851 -793 850 0
-852 -792 0
-852 -851 0
852 792 851 0
-853 789 0
-853 -852 0
853 -789 852 0
-854 -788 0
-854 -853 0
854 788 853 0
-855 785 0
-855 -854 0
855 -785 854 0
-856 -784 0
-856 -855 0
856 784 855 0
-857 781 0
-857 -856 0
857 -781 856 0
-858 -780 0
-858 -857 0
858 780 857 0
-859 858 -777 0
-859 -858 777 0
859 858 777 0
859 -858 -777 0
-860 17 0
-860 31 0
860 -17 -31 0
-861 -860 -859 0
-861 860 859 0
861 -860 859 0
861 860 -859 0
-862 856 -781 0
-862 -856 781 0
862 856 781 0
862 -856 -781 0
-863 17 0
-863 30 0
863 -17 -30 0
-864 862 0
-864 863 0
864 -862 -863 0
-865 -863 -862 0
-865 863 862 0
865 -863 862 0
865 863 -862 0
-866 854 -785 0
-866 -854 785 0
866 854 785 0
866 -854 -785 0
-867 17 0
-867 29 0
867 -17 -29 0
-868 866 0
-868 867 0
868 -866 -867 0
-869 -867 -866 0
-869 867 866 0
869 -867 866 0
869 867 -866 0
-870 852 -789 0
-870 -852 789 0
870 852 789 0
870 -852 -789 0
-871 17 0
-871 28 0
871 -17 -28 0
-872 870 0
-872 871 0
872 -870 -871 0
-873 -871 -870 0
-873 871 870 0
873 -871 870 0
873 871 -870 0
-874 850 -793 0
-874 -850 793 0
874 850 793 0
874 -850 -793 0
-875 17 0
-875 27 0
875 -17 -27 0
-876 874 0
-876 875 0
876 -874 -875 0
-877 -875 -874 0
-877 875 874 0
877 -875 874 0
877 875 -874 0
-878 848 -797 0
-878 -848 797 0
878 848 797 0
878 -848 -797 0
-879 17 0
-879 26 0
879 -17 -26 0
-880 878 0
-880 879 0
880 -878 -879 0
-881 -879 -878 0
-881 879 878 0
881 -879 878 0
881 879 -878 0
-882 846 -801 0
-882 -846 801 0
882 846 801 0
882 -846 -801 0
-883 17 0
-883 25 0
883 -17 -25 0
-884 882 0
-884 883 0
884 -882 -883 0
-885 -883 -882 0
-885 883 882 0
885 -883 882 0
885 883 -882 0
-886 844 -805 0
-886 -844 805 0
886 844 805 0
886 -844 -805 0
-887 17 0
-887 24 0
887 -17 -24 0
-888 886 0
-888 887 0
888 -886 -887 0
-889 -887 -886 0
-889 887 886 0
889 -887 886 0
889 887 -886 0
-890 842 -809 0
-890 -842 809 0
890 842 809 0
890 -842 -809 0
-891 17 0
-891 23 0
891 -17 -23 0
-892 890 0
-892 891 0
892 -890 -891 0
-893 -891 -890 0
-893 891 890 0
893 -891 890 0
893 891 -890 0
-894 840 -813 0
-894 -840 813 0
894 840 813 0
894 -840 -813 0
-895 17 0
-895 22 0
895 -17 -22 0
-896 894 0
-896 895 0
896 -894 -895 0
-897 -895 -894 0
-897 895 894 0
897 -895 894 0
897 895 -894 0
-898 838 -817 0
-898 -838 817 0
898 838 817 0
898 -838 -817 0
-899 17 0
-899 21 0
899 -17 -21 0
-900 898 0
-900 899 0
900 -898 -899 0
-901 -899 -898 0
-901 899 898 0
901 -899 898 0
901 899 -898 0
-902 836 -821 0
-902 -836 821 0
902 836 821 0
902 -836 -821 0
-903 17 0
-903 20 0
903 -17 -20 0
-904 902 0
-904 903 0
904 -902 -903 0
-905 -903 -902 0
-905 903 902 0
905 -903 902 0
905 903 -902 0
-906 834 -825 0
-906 -834 825 0
906 834 825 0
906 -834 -825 0
-907 5 0
-907 17 0
907 -5 -17 0
-908 906 0
-908 907 0
908 -906 -907 0
-909 -907 -906 0
-909 907 906 0
909 -907 906 0
909 907 -906 0
-910 -832 -829 0
-910 832 829 0
910 -832 829 0
910 832 -829 0
-911 3 0
-911 17 0
911 -3 -17 0
-912 910 0
-912 911 0
912 -910 -911 0
-913 909 0
-913 912 0
913 -909 -912 0
-914 -908 0
-914 -913 0
914 908 913 0
-915 905 0
-915 -914 0
915 -905 914 0
-916 -904 0
-916 -915 0
916 904 915 0
-917 901 0
-917 -916 0
917 -901 916 0
-918 -900 0
-918 -917 0
918 900 917 0
-919 897 0
-919 -918 0
919 -897 918 0
-920 -896 0
-920 -919 0
920 896 919 0
-921 893 0
-921 -920 0
921 -893 920 0
-922 -892 0
-922 -921 0
922 892 921 0
-923 889 0
-923 -922 0
923 -889 922 0
-924 -888 0
-924 -923 0
924 888 923 0
-925 885 0
-925 -924 0
925 -885 924 0
-926 -884 0
-926 -925 0
926 884 925 0
-927 881 0
-927 -926 0
927 -881 926 0
-928 -880 0
-928 -927 0
928 880 927 0
-929 877 0
-929 -928 0
929 -877 928 0
-930 -876 0
-930 -929 0
930 876 929 0
-931 873 0
-931 -930 0
931 -873 930 0
-932 -872 0
-932 -931 0
932 872 931 0
-933 869 0
-933 -932 0
933 -869 932 0
-934 -868 0
-934 -933 0
934 868 933 0
-935 865 0
-935 -934 0
935 -865 934 0
-936 -864 0
-936 -935 0
936 864 935 0
-937 936 -861 0
-937 -936 861 0
937 936 861 0
937 -936 -861 0
-938 16 0
-938 30 0
938 -16 -30 0
-939 -938 -937 0
-939 938 937 0
939 -938 937 0
939 938 -937 0
-940 934 -865 0
-940 -934 865 0
940 934 865 0
940 -934 -865 0
-941 16 0
-941 29 0
941 -16 -29 0
-942 940 0
-942 941 0
942 -940 -941 0
-943 -941 -940 0
-943 941 940 0
943 -941 940 0
943 941 -940 0
-944 932 -869 0
-944 -932 869 0
944 932 869 0
944 -932 -869 0
-945 16 0
-945 28 0
945 -16 -28 0
-946 944 0
-946 945 0
946 -944 -945 0
-947 -945 -944 0
-947 945 944 0
947 -945 944 0
947 945 -944 0
-948 930 -873 0
-948 -930 873 0
948 930 873 0
948 -930 -873 0
-949 16 0
-949 27 0
949 -16 -27 0
-950 948 0
-950 949 0
950 -948 -949 0
-951 -949 -948 0
-951 949 948 0
951 -949 948 0
951 949 -948 0
-952 928 -877 0
-952 -928 877 0
952 928 877 0
952 -928 -877 0
-953 16 0
-953 26 0
953 -16 -26 0
-954 952 0
-954 953 0
954 -952 -953 0
-955 -953 -952 0
-955 953 952 0
955 -953 952 0
955 953 -952 0
-956 926 -881 0
-956 -926 881 0
956 926 881 0
956 -926 -881 0
-957 16 0
-957 25 0
957 -16 -25 0
-958 956 0
-958 957 0
958 -956 -957 0
-959 -957 -956 0
-959 957 956 0
959 -957 956 0
959 957 -956 0
-960 924 -885 0
-960 -924 885 0
960 924 885 0
960 -924 -885 0
-961 16 0
-961 24 0
961 -16 -24 0
-962 960 0
-962 961 0
962 -960 -961 0
-963 -961 -960 0
-963 961 960 0
963 -961 960 0
963 961 -960 0
-964 922 -889 0
-964 -922 889 0
964 922 889 0
964 -922 -889 0
-965 16 0
-965 23 0
965 -16 -23 0
-966 964 0
-966 965 0
966 -964 -965 0
-967 -965 -964 0
-967 965 964 0
967 -965 964 0
967 965 -964 0
-968 920 -893 0
-968 -920 893 0
968 920 893 0
968 -920 -893 0
-969 16 0
-969 22 0
969 -16 -22 0
-970 968 0
-970 969 0
970 -968 -969 0
-971 -969 -968 0
-971 969 968 0
971 -969 968 0
971 969 -968 0
-972 918 -897 0
-972 -918 897 0
972 918 897 0
972 -918 -897 0
-973 16 0
-973 21 0
973 -16 -21 0
-974 972 0
-974 973 0
974 -972 -973 0
-975 -973 -972 0
-975 973 972 0
975 -973 972 0
975 973 -972 0
-976 916 -901 0
-976 -916 901 0
976 916 901 0
976 -916 -901 0
-977 16 0
-977 20 0
977 -16 -20 0
-978 976 0
-978 977 0
978 -976 -977 0
-979 -977 -976 0
-979 977 976 0
979 -977 976 0
979 977 -976 0
-980 914 -905 0
-980 -914 905 0
980 914 905 0
980 -914 -905 0
-981 5 0
-981 16 0
981 -5 -16 0
-982 980 0
-982 981 0
982 -980 -981 0
-983 -981 -980 0
-983 981 980 0
983 -981 980 0
983 981 -980 0
-984 -912 -909 0
-984 912 909 0
984 -912 909 0
984 912 -909 0
-985 3 0
-985 16 0
985 -3 -16 0
-986 984 0
-986 985 0
986 -984 -985 0
-987 983 0
-987 986 0
987 -983 -986 0
-988 -982 0
-988 -987 0
988 982 987 0
-989 979 0
-989 -988 0
989 -979 988 0
-990 -978 0
-990 -989 0
990 978 989 0
-991 975 0
-991 -990 0
991 -975 990 0
-992 -974 0
-992 -991 0
992 974 991 0
-993 971 0
-993 -992 0
993 -971 992 0
-994 -970 0
-994 -993 0
994 970 993 0
-995 967 0
-995 -994 0
995 -967 994 0
-996 -966 0
-996 -995 0
996 966 995 0
-997 963 0
-997 -996 0
997 -963 996 0
-998 -962 0
-998 -997 0
998 962 997 0
-999 959 0
-999 -998 0
999 -959 998 0
-1000 -958 0
-1000 -999 0
1000 958 999 0
-1001 955 0
-1001 -1000 0
1001 -955 1000 0
-1002 -954 0
-1002 -1001 0
1002 954 1001 0
-1003 951 0
-1003 -1002 0
1003 -951 1002 0
-1004 -950 0
-1004 -1003 0
1004 950 1003 0
-1005 947 0
-1005 -1004 0
1005 -947 1004 0
-1006 -946 0
-1006 -1005 0
1006 946 1005 0
-1007 943 0
-1007 -1006 0
1007 -943 1006 0
-1008 -942 0
-1008 -1007 0
1008 942 1007 0
-1009 1008 -939 0
-1009 -1008 939 0
1009 1008 939 0
1009 -1008 -939 0
-1010 15 0
-1010 29 0
1010 -15 -29 0
-1011 -1010 -1009 0
-1011 1010 1009 0
1011 -1010 1009 0
1011 1010 -1009 0
-1012 1006 -943 0
-1012 -1006 943 0
1012 1006 943 0
1012 -1006 -943 0
-1013 15 0
-1013 28 0
1013 -15 -28 0
-1014 1012 0
-1014 1013 0
1014 -1012 -1013 0
-1015 -1013 -1012 0
-1015 1013 1012 0
1015 -1013 1012 0
1015 1013 -1012 0
-1016 1004 -947 0
-1016 -1004 947 0
1016 1004 947 0
1016 -1004 -947 0
-1017 15 0
-1017 27 0
1017 -15 -27 0
-1018 1016 0
-1018 1017 0
1018 -1016 -1017 0
-1019 -1017 -1016 0
-1019 1017 1016 0
1019 -1017 1016 0
1019 1017 -1016 0
-1020 1002 -951 0
-1020 -1002 951 0
1020 1002 951 0
1020 -1002 -951 0
-1021 15 0
-1021 26 0
1021 -15 -26 0
-1022 1020 0
-1022 1021 0
1022 -1020 -1021 0
-1023 -1021 -1020 0
-1023 1021 1020 0
1023 -1021 1020 0
1023 1021 -1020 0
-1024 1000 -955 0
-1024 -1000 955 0
1024 1000 955 0
1024 -1000 -955 0
-1025 15 0
-1025 25 0
1025 -15 -25 0
-1026 1024 0
-1026 1025 0
1026 -1024 -1025 0
-1027 -1025 -1024 0
-1027 1025 1024 0
1027 -1025 1024 0
1027 1025 -1024 0
-1028 998 -959 0
-1028 -998 959 0
1028 998 959 0
1028 -998 -959 0
-1029 15 0
-1029 24 0
1029 -15 -24 0
-1030 1028 0
-1030 1029 0
1030 -1028 -1029 0
-1031 -1029 -1028 0
-1031 1029 1028 0
1031 -1029 1028 0
1031 1029 -1028 0
-1032 996 -963 0
-1032 -996 963 0
1032 996 963 0
1032 -996 -963 0
-1033 15 0
-1033 23 0
1033 -15 -23 0
-1034 1032 0
-1034 1033 0
1034 -1032 -1033 0
-1035 -1033 -1032 0
-1035 1033 1032 0
1035 -1033 1032 0
1035 1033 -1032 0
-1036 994 -967 0
-1036 -994 967 0
1036 994 967 0
1036 -994 -967 0
-1037 15 0
-1037 22 0
1037 -15 -22 0
-1038 1036 0
-1038 1037 0
1038 -1036 -1037 0
-1039 -1037 -1036 0
-1039 1037 1036 0
1039 -1037 1036 0
1039 1037 -1036 0
-1040 992 -971 0
-1040 -992 971 0
1040 992 971 0
1040 -992 -971 0
-1041 15 0
-1041 21 0
1041 -15 -21 0
-1042 1040 0
-1042 1041 0
1042 -1040 -1041 0
-1043 -1041 -1040 0
-1043 1041 1040 0
1043 -1041 1040 0
1043 1041 -1040 0
-1044 990 -975 0
-1044 -990 975 0
1044 990 975 0
1044 -990 -975 0
-1045 15 0
-1045 20 0
1045 -15 -20 0
-1046 1044 0
-1046 1045 0
1046 -1044 -1045 0
-1047 -1045 -1044 0
-1047 1045 1044 0
1047 -1045 1044 0
1047 1045 -1044 0
-1048 988 -979 0
-1048 -988 979 0
1048 988 979 0
1048 -988 -979 0
-1049 5 0
-1049 15 0
1049 -5 -15 0
-1050 1048 0
-1050 1049 0
1050 -1048 -1049 0
-1051 -1049 -1048 0
-1051 1049 1048 0
1051 -1049 1048 0
1051 1049 -1048 0
-1052 -986 -983 0
-1052 986 983 0
1052 -986 983 0
1052 986 -983 0
-1053 3 0
-1053 15 0
1053 -3 -15 0
-1054 1052 0
-1054 1053 0
1054 -1052 -1053 0
-1055 1051 0
-1055 1054 0
1055 -1051 -1054 0
-1056 -1050 0
-1056 -1055 0
1056 1050 1055 0
-1057 1047 0
-1057 -1056 0
1057 -1047 1056 0
-1058 -1046 0
-1058 -1057 0
1058 1046 1057 0
-1059 1043 0
-1059 -1058 0
1059 -1043 1058 0
-1060 -1042 0
-1060 -1059 0
1060 1042 1059 0
-1061 1039 0
-1061 -1060 0
1061 -1039 1060 0
-1062 -1038 0
-1062 -1061 0
1062 1038 1061 0
-1063 1035 0
-1063 -1062 0
1063 -1035 1062 0
-1064 -1034 0
-1064 -1063 0
1064 1034 1063 0
-1065 1031 0
-1065 -1064 0
1065 -1031 1064 0
-1066 -1030 0
-1066 -1065 0
1066 1030 1065 0
-1067 1027 0
-1067 -1066 0
1067 -1027 1066 0
-1068 -1026 0
-1068 -1067 0
1068 1026 1067 0
-1069 1023 0
-1069 -1068 0
1069 -1023 1068 0
-1070 -1022 0
-1070 -1069 0
1070 1022 1069 0
-1071 1019 0
-1071 -1070 0
1071 -1019 1070 0
-1072 -1018 0
-1072 -1071 0
1072 1018 1071 0
-1073 1015 0
-1073 -1072 0
1073 -1015 1072 0
-1074 -1014 0
-1074 -1073 0
1074 1014 1073 0
-1075 1074 -1011 0
-1075 -1074 1011 0
1075 1074 1011 0
1075 -1074 -1011 0
-1076 14 0
-1076 28 0
1076 -14 -28 0
-1077 -1076 -1075 0
-1077 1076 1075 0
1077 -1076 1075 0
1077 1076 -1075 0
-1078 1072 -1015 0
-1078 -1072 1015 0
1078 1072 1015 0
1078 -1072 -1015 0
-1079 14 0
-1079 27 0
1079 -14 -27 0
-1080 1078 0
-1080 1079 0
1080 -1078 -1079 0
-1081 -1079 -1078 0
-1081 1079 1078 0
1081 -1079 1078 0
1081 1079 -1078 0
-1082 1070 -1019 0
-1082 -1070 1019 0
1082 1070 1019 0
1082 -1070 -1019 0
-1083 14 0
-1083 26 0
1083 -14 -26 0
-1084 1082 0
-1084 1083 0
1084 -1082 -1083 0
-1085 -1083 -1082 0
-1085 1083 1082 0
1085 -1083 1082 0
1085 1083 -1082 0
-1086 1068 -1023 0
-1086 -1068 1023 0
1086 1068 1023 0
1086 -1068 -1023 0
-1087 14 0
-1087 25 0
1087 -14 -25 0
-1088 1086 0
-1088 1087 0
1088 -1086 -1087 0
-1089 -1087 -1086 0
-1089 1087 1086 0
1089 -1087 1086 0
1089 1087 -1086 0
-1090 1066 -1027 0
-1090 -1066 1027 0
1090 1066 1027 0
1090 -1066 -1027 0
-1091 14 0
-1091 24 0
1091 -14 -24 0
-1092 1090 0
-1092 1091 0
1092 -1090 -1091 0
-1093 -1091 -1090 0
-1093 1091 1090 0
1093 -1091 1090 0
1093 1091 -1090 0
-1094 1064 -1031 0
-1094 -1064 1031 0
1094 1064 1031 0
1094 -1064 -1031 0
-1095 14 0
-1095 23 0
1095 -14 -23 0
-1096 1094 0
-1096 1095 0
1096 -1094 -1095 0
-1097 -1095 -1094 0
-1097 1095 1094 0
1097 -1095 1094 0
1097 1095 -1094 0
-1098 1062 -1035 0
-1098 -1062 1035 0
1098 1062 1035 0
1098 -1062 -1035 0
-1099 14 0
-1099 22 0
1099 -14 -22 0
-1100 1098 0
-1100 1099 0
1100 -1098 -1099 0
-1101 -1099 -1098 0
-1101 1099 1098 0
1101 -1099 1098 0
1101 1099 -1098 0
-1102 1060 -1039 0
-1102 -1060 1039 0
1102 1060 1039 0
1102 -1060 -1039 0
-1103 14 0
-1103 21 0
1103 -14 -21 0
-1104 1102 0
-1104 1103 0
1104 -1102 -1103 0
-1105 -1103 -1102 0
-1105 1103 1102 0
1105 -1103 1102 0
1105 1103 -1102 0
-1106 1058 -1043 0
-1106 -1058 1043 0
1106 1058 1043 0
1106 -1058 -1043 0
-1107 14 0
-1107 20 0
1107 -14 -20 0
-1108 1106 0
-1108 1107 0
1108 -1106 -1107 0
-1109 -1107 -1106 0
-1109 1107 1106 0
1109 -1107 1106 0
1109 1107 -1106 0
-1110 1056 -1047 0
-1110 -1056 1047 0
1110 1056 1047 0
1110 -1056 -1047 0
-1111 5 0
-1111 14 0
1111 -5 -14 0
-1112 1110 0
-1112 1111 0
1112 -1110 -1111 0
-1113 -1111 -1110 0
-1113 1111 1110 0
1113 -1111 1110 0
1113 1111 -1110 0
-1114 -1054 -1051 0
-1114 1054 1051 0
1114 -1054 1051 0
1114 1054 -1051 0
-1115 3 0
-1115 14 0
1115 -3 -14 0
-1116 1114 0
-1116 1115 0
1116 -1114 -1115 0
-1117 1113 0
-1117 1116 0
1117 -1113 -1116 0
-1118 -1112 0
-1118 -1117 0
1118 1112 1117 0
-1119 1109 0
-1119 -1118 0
1119 -1109 1118 0
-1120 -1108 0
-1120 -1119 0
1120 1108 1119 0
-1121 1105 0
-1121 -1120 0
1121 -1105 1120 0
-1122 -1104 0
-1122 -1121 0
1122 1104 1121 0
-1123 1101 0
-1123 -1122 0
1123 -1101 1122 0
-1124 -1100 0
-1124 -1123 0
1124 1100 1123 0
-1125 1097 0
-1125 -1124 0
1125 -1097 1124 0
-1126 -1096 0
-1126 -1125 0
1126 1096 1125 0
-1127 1093 0
-1127 -1126 0
1127 -1093 1126 0
-1128 -1092 0
-1128 -1127 0
1128 1092 1127 0
-1129 1089 0
-1129 -1128 0
1129 -1089 1128 0
-1130 -1088 0
-1130 -1129 0
1130 1088 1129 0
-1131 1085 0
-1131 -1130 0
1131 -1085 1130 0
-1132 -1084 0
-1132 -1131 0
1132 1084 1131 0
-1133 1081 0
-1133 -1132 0
1133 -1081 1132 0
-1134 -1080 0
-1134 -1133 0
1134 1080 1133 0
-1135 1134 -1077 0
-1135 -1134 1077 0
1135 1134 1077 0
1135 -1134 -1077 0
-1136 13 0
-1136 27 0
1136 -13 -27 0
-1137 -1136 -1135 0
-1137 1136 1135 0
1137 -1136 1135 0
1137 1136 -1135 0
-1138 1132 -1081 0
-1138 -1132 1081 0
1138 1132 1081 0
1138 -1132 -1081 0
-1139 13 0
-1139 26 0
1139 -13 -26 0
-1140 1138 0
-1140 1139 0
1140 -1138 -1139 0
-1141 -1139 -1138 0
-1141 1139 1138 0
1141 -1139 1138 0
1141 1139 -1138 0
-1142 1130 -1085 0
-1142 -1130 1085 0
1142 1130 1085 0
1142 -1130 -1085 0
-1143 13 0
-1143 25 0
1143 -13 -25 0
-1144 1142 0
-1144 1143 0
1144 -1142 -1143 0
-1145 -1143 -1142 0
-1145 1143 1142 0
1145 -1143 1142 0
1145 1143 -1142 0
-1146 1128 -1089 0
-1146 -1128 1089 0
1146 1128 1089 0
1146 -1128 -1089 0
-1147 13 0
-1147 24 0
1147 -13 -24 0
-1148 1146 0
-1148 1147 0
1148 -1146 -1147 0
-1149 -1147 -1146 0
-1149 1147 1146 0
1149 -1147 1146 0
1149 1147 -1146 0
-1150 1126 -1093 0
-1150 -1126 1093 0
1150 1126 1093 0
1150 -1126 -1093 0
-1151 13 0
-1151 23 0
1151 -13 -23 0
-1152 1150 0
-1152 1151 0
1152 -1150 -1151 0
-1153 -1151 -1150 0
-1153 1151 1150 0
1153 -1151 1150 0
1153 1151 -1150 0
-1154 1124 -1097 0
-1154 -1124 1097 0
1154 1124 1097 0
1154 -1124 -1097 0
-1155 13 0
-1155 22 0
1155 -13 -22 0
-1156 1154 0
-1156 1155 0
1156 -1154 -1155 0
-1157 -1155 -1154 0
-1157 1155 1154 0
1157 -1155 1154 0
1157 1155 -1154 0
-1158 1122 -1101 0
-1158 -1122 1101 0
1158 1122 1101 0
1158 -1122 -1101 0
-1159 13 0
-1159 21 0
1159 -13 -21 0
-1160 1158 0
-1160 1159 0
1160 -1158 -1159 0
-1161 -1159 -1158 0
-1161 1159 1158 0
1161 -1159 1158 0
1161 1159 -1158 0
-1162 1120 -1105 0
-1162 -1120 1105 0
1162 1120 1105 0
1162 -1120 -1105 0
-1163 13 0
-1163 20 0
1163 -13 -20 0
-1164 1162 0
-1164 1163 0
1164 -1162 -1163 0
-1165 -1163 -1162 0
-1165 1163 1162 0
1165 -1163 1162 0
1165 1163 -1162 0
-1166 1118 -1109 0
-1166 -1118 1109 0
1166 1118 1109 0
1166 -1118 -1109 0
-1167 5 0
-1167 13 0
1167 -5 -13 0
-1168 1166 0
-1168 1167 0
1168 -1166 -1167 0
-1169 -1167 -1166 0
-1169 1167 1166 0
1169 -1167 1166 0
1169 1167 -1166 0
-1170 -1116 -1113 0
-1170 1116 1113 0
1170 -1116 1113 0
1170 1116 -1113 0
-1171 3 0
-1171 13 0
1171 -3 -13 0
-1172 1170 0
-1172 1171 0
1172 -1170 -1171 0
-1173 1169 0
-1173 1172 0
1173 -1169 -1172 0
-1174 -1168 0
-1174 -1173 0
1174 1168 1173 0
-1175 1165 0
-1175 -1174 0
1175 -1165 1174 0
-1176 -1164 0
-1176 -1175 0
1176 1164 1175 0
-1177 1161 0
-1177 -1176 0
1177 -1161 1176 0
-1178 -1160 0
-1178 -1177 0
1178 1160 1177 0
-1179 1157 0
-1179 -1178 0
1179 -1157 1178 0
-1180 -1156 0
-1180 -1179 0
1180 1156 1179 0
-1181 1153 0
-1181 -1180 0
1181 -1153 1180 0
-1182 -1152 0
-1182 -1181 0
1182 1152 1181 0
-1183 1149 0
-1183 -1182 0
1183 -1149 1182 0
-1184 -1148 0
-1184 -1183 0
1184 1148 1183 0
-1185 1145 0
-1185 -1184 0
1185 -1145 1184 0
-1186 -1144 0
-1186 -1185 0
1186 1144 1185 0
-1187 1141 0
-1187 -1186 0
1187 -1141 1186 0
-1188 -1140 0
-1188 -1187 0
1188 1140 1187 0
-1189 1188 -1137 0
-1189 -1188 1137 0
1189 1188 1137 0
1189 -1188 -1137 0
-1190 12 0
-1190 26 0
1190 -12 -26 0
-1191 -1190 -1189 0
-1191 1190 1189 0
1191 -1190 1189 0
1191 1190 -1189 0
-1192 1186 -1141 0
-1192 -1186 1141 0
1192 1186 1141 0
1192 -1186 -1141 0
-1193 12 0
-1193 25 0
1193 -12 -25 0
-1194 1192 0
-1194 1193 0
1194 -1192 -1193 0
-1195 -1193 -1192 0
-1195 1193 1192 0
1195 -1193 1192 0
1195 1193 -1192 0
-1196 1184 -1145 0
-1196 -1184 1145 0
1196 1184 1145 0
1196 -1184 -1145 0
-1197 12 0
-1197 24 0
1197 -12 -24 0
-1198 1196 0
-1198 1197 0
1198 -1196 -1197 0
-1199 -1197 -1196 0
-1199 1197 1196 0
1199 -1197 1196 0
1199 1197 -1196 0
-1200 1182 -1149 0
-1200 -1182 1149 0
1200 1182 1149 0
1200 -1182 -1149 0
-1201 12 0
-1201 23 0
1201 -12 -23 0
-1202 1200 0
-1202 1201 0
1202 -1200 -1201 0
-1203 -1201 -1200 0
-1203 1201 1200 0
1203 -1201 1200 0
1203 1201 -1200 0
-1204 1180 -1153 0
-1204 -1180 1153 0
1204 1180 1153 0
1204 -1180 -1153 0
-1205 12 0
-1205 22 0
1205 -12 -22 0
-1206 1204 0
-1206 1205 0
1206 -1204 -1205 0
-1207 -1205 -1204 0
-1207 1205 1204 0
1207 -1205 1204 0
1207 1205 -1204 0
-1208 1178 -1157 0
-1208 -1178 1157 0
1208 1178 1157 0
1208 -1178 -1157 0
-1209 12 0
-1209 21 0
1209 -12 -21 0
-1210 1208 0
-1210 1209 0
1210 -1208 -1209 0
-1211 -1209 -1208 0
-1211 1209 1208 0
1211 -1209 1208 0
1211 1209 -1208 0
-1212 1176 -1161 0
-1212 -1176 1161 0
1212 1176 1161 0
1212 -1176 -1161 0
-1213 12 0
-1213 20 0
1213 -12 -20 0
-1214 1212 0
-1214 1213 0
1214 -1212 -1213 0
-1215 -1213 -1212 0
-1215 1213 1212 0
1215 -1213 1212 0
1215 1213 -1212 0
-1216 1174 -1165 0
-1216 -1174 1165 0
1216 1174 1165 0
1216 -1174 -1165 0
-1217 5 0
-1217 12 0
1217 -5 -12 0
-1218 1216 0
-1218 1217 0
1218 -1216 -1217 0
-1219 -1217 -1216 0
-1219 1217 1216 0
1219 -1217 1216 0
1219 1217 -1216 0
-1220 -1172 -1169 0
-1220 1172 1169 0
1220 -1172 1169 0
1220 1172 -1169 0
-1221 3 0
-1221 12 0
1221 -3 -12 0
-1222 1220 0
-1222 1221 0
1222 -1220 -1221 0
-1223 1219 0
-1223 1222 0
1223 -1219 -1222 0
-1224 -1218 0
-1224 -1223 0
1224 1218 1223 0
-1225 1215 0
-1225 -1224 0
1225 -1215 1224 0
-1226 -1214 0
-1226 -1225 0
1226 1214 1225 0
-1227 1211 0
-1227 -1226 0
1227 -1211 1226 0
-1228 -1210 0
-1228 -1227 0
1228 1210 1227 0
-1229 1207 0
-1229 -1228 0
1229 -1207 1228 0
-1230 -1206 0
-1230 -1229 0
1230 1206 1229 0
-1231 1203 0
-1231 -1230 0
1231 -1203 1230 0
-1232 -1202 0
-1232 -1231 0
1232 1202 1231 0
-1233 1199 0
-1233 -1232 0
1233 -1199 1232 0
-1234 -1198 0
-1234 -1233 0
1234 1198 1233 0
-1235 1195 0
-1235 -1234 0
1235 -1195 1234 0
-1236 -1194 0
-1236 -1235 0
1236 1194 1235 0
-1237 1236 -1191 0
-1237 -1236 1191 0
1237 1236 1191 0
1237 -1236 -1191 0
-1238 11 0
-1238 25 0
1238 -11 -25 0
-1239 -1238 -1237 0
-1239 1238 1237 0
1239 -1238 1237 0
1239 1238 -1237 0
-1240 1234 -1195 0
-1240 -1234 1195 0
1240 1234 1195 0
1240 -1234 -1195 0
-1241 11 0
-1241 24 0
1241 -11 -24 0
-1242 1240 0
-1242 1241 0
1242 -1240 -1241 0
-1243 -1241 -1240 0
-1243 1241 1240 0
1243 -1241 1240 0
1243 1241 -1240 0
-1244 1232 -1199 0
-1244 -1232 1199 0
1244 1232 1199 0
1244 -1232 -1199 0
-1245 11 0
-1245 23 0
1245 -11 -23 0
-1246 1244 0
-1246 1245 0
1246 -1244 -1245 0
-1247 -1245 -1244 0
-1247 1245 1244 0
1247 -1245 1244 0
1247 1245 -1244 0
-1248 1230 -1203 0
-1248 -1230 1203 0
1248 1230 1203 0
1248 -1230 -1203 0
-1249 11 0
-1249 22 0
1249 -11 -22 0
-1250 1248 0
-1250 1249 0
1250 -1248 -1249 0
-1251 -1249 -1248 0
-1251 1249 1248 0
1251 -1249 1248 0
1251 1249 -1248 0
-1252 1228 -1207 0
-1252 -1228 1207 0
1252 1228 1207 0
1252 -1228 -1207 0
-1253 11 0
-1253 21 0
1253 -11 -21 0
-1254 1252 0
-1254 1253 0
1254 -1252 -1253 0
-1255 -1253 -1252 0
-1255 1253 1252 0
1255 -1253 1252 0
1255 1253 -1252 0
-1256 1226 -1211 0
-1256 -1226 1211 0
1256 1226 1211 0
1256 -1226 -1211 0
-1257 11 0
-1257 20 0
1257 -11 -20 0
-1258 1256 0
-1258 1257 0
1258 -1256 -1257 0
-1259 -1257 -1256 0
-1259 1257 1256 0
1259 -1257 1256 0
1259 1257 -1256 0
-1260 1224 -1215 0
-1260 -1224 1215 0
1260 1224 1215 0
1260 -1224 -1215 0
-1261 5 0
-1261 11 0
1261 -5 -11 0
-1262 1260 0
-1262 1261 0
1262 -1260 -1261 0
-1263 -1261 -1260 0
-1263 1261 1260 0
1263 -1261 1260 0
1263 1261 -1260 0
-1264 -1222 -1219 0
-1264 1222 1219 0
1264 -1222 1219 0
1264 1222 -1219 0
-1265 3 0
-1265 11 0
1265 -3 -11 0
-1266 1264 0
-1266 1265 0
1266 -1264 -1265 0
-1267 1263 0
-1267 1266 0
1267 -1263 -1266 0
-1268 -1262 0
-1268 -1267 0
1268 1262 1267 0
-1269 1259 0
-1269 -1268 0
1269 -1259 1268 0
-1270 -1258 0
-1270 -1269 0
1270 1258 1269 0
-1271 1255 0
-1271 -1270 0
1271 -1255 1270 0
-1272 -1254 0
-1272 -1271 0
1272 1254 1271 0
-1273 1251 0
-1273 -1272 0
1273 -1251 1272 0
-1274 -1250 0
-1274 -1273 0
1274 1250 1273 0
-1275 1247 0
-1275 -1274 0
1275 -1247 1274 0
-1276 -1246 0
-1276 -1275 0
1276 1246 1275 0
-1277 1243 0
-1277 -1276 0
1277 -1243 1276 0
-1278 -1242 0
-1278 -1277 0
1278 1242 1277 0
-1279 1278 -1239 0
-1279 -1278 1239 0
1279 1278 1239 0
1279 -1278 -1239 0
-1280 10 0
-1280 24 0
1280 -10 -24 0
-1281 -1280 -1279 0
-1281 1280 1279 0
1281 -1280 1279 0
1281 1280 -1279 0
-1282 1276 -1243 0
-1282 -1276 1243 0
1282 1276 1243 0
1282 -1276 -1243 0
-1283 10 0
-1283 23 0
1283 -10 -23 0
-1284 1282 0
-1284 1283 0
1284 -1282 -1283 0
-1285 -1283 -1282 0
-1285 1283 1282 0
1285 -1283 1282 0
1285 1283 -1282 0
-1286 1274 -1247 0
-1286 -1274 1247 0
1286 1274 1247 0
1286 -1274 -1247 0
-1287 10 0
-1287 22 0
1287 -10 -22 0
-1288 1286 0
-1288 1287 0
1288 -1286 -1287 0
-1289 -1287 -1286 0
-1289 1287 1286 0
1289 -1287 1286 0
1289 1287 -1286 0
-1290 1272 -1251 0
-1290 -1272 1251 0
1290 1272 1251 0
1290 -1272 -1251 0
-1291 10 0
-1291 21 0
1291 -10 -21 0
-1292 1290 0
-1292 1291 0
1292 -1290 -1291 0
-1293 -1291 -1290 0
-1293 1291 1290 0
1293 -1291 1290 0
1293 1291 -1290 0
-1294 1270 -1255 0
-1294 -1270 1255 0
1294 1270 1255 0
1294 -1270 -1255 0
-1295 10 0
-1295 20 0
1295 -10 -20 0
-1296 1294 0
-1296 1295 0
1296 -1294 -1295 0
-1297 -1295 -1294 0
-1297 1295 1294 0
1297 -1295 1294 0
1297 1295 -1294 0
-1298 1268 -1259 0
-1298 -1268 1259 0
1298 1268 1259 0
1298 -1268 -1259 0
-1299 5 0
-1299 10 0
1299 -5 -10 0
-1300 1298 0
-1300 1299 0
1300 -1298 -1299 0
-1301 -1299 -1298 0
-1301 1299 1298 0
1301 -1299 1298 0
1301 1299 -1298 0
-1302 -1266 -1263 0
-1302 1266 1263 0
1302 -1266 1263 0
1302 1266 -1263 0
-1303 3 0
-1303 10 0
1303 -3 -10 0
-1304 1302 0
-1304 1303 0
1304 -1302 -1303 0
-1305 1301 0
-1305 1304 0
1305 -1301 -1304 0
-1306 -1300 0
-1306 -1305 0
1306 1300 1305 0
-1307 1297 0
-1307 -1306 0
1307 -1297 1306 0
-1308 -1296 0
-1308 -1307 0
1308 1296 1307 0
-1309 1293 0
-1309 -1308 0
1309 -1293 1308 0
-1310 -1292 0
-1310 -1309 0
1310 1292 1309 0
-1311 1289 0
-1311 -1310 0
1311 -1289 1310 0
-1312 -1288 0
-1312 -1311 0
1312 1288 1311 0
-1313 1285 0
-1313 -1312 0
1313 -1285 1312 0
-1314 -1284 0
-1314 -1313 0
1314 1284 1313 0
-1315 1314 -1281 0
-1315 -1314 1281 0
1315 1314 1281 0
1315 -1314 -1281 0
-1316 9 0
-1316 23 0
1316 -9 -23 0
-1317 -1316 -1315 0
-1317 1316 1315 0
1317 -1316 1315 0
1317 1316 -1315 0
-1318 1312 -1285 0
-1318 -1312 1285 0
1318 1312 1285 0
1318 -1312 -1285 0
-1319 9 0
-1319 22 0
1319 -9 -22 0
-1320 1318 0
-1320 1319 0
1320 -1318 -1319 0
-1321 -1319 -1318 0
-1321 1319 1318 0
1321 -1319 1318 0
1321 1319 -1318 0
-1322 1310 -1289 0
-1322 -1310 1289 0
1322 1310 1289 0
1322 -1310 -1289 0
-1323 9 0
-1323 21 0
1323 -9 -21 0
-1324 1322 0
-1324 1323 0
1324 -1322 -1323 0
-1325 -1323 -1322 0
-1325 1323 1322 0
1325 -1323 1322 0
1325 1323 -1322 0
-1326 1308 -1293 0
-1326 -1308 1293 0
1326 1308 1293 0
1326 -1308 -1293 0
-1327 9 0
-1327 20 0
1327 -9 -20 0
-1328 1326 0
-1328 1327 0
1328 -1326 -1327 0
-1329 -1327 -1326 0
-1329 1327 1326 0
1329 -1327 1326 0
1329 1327 -1326 0
-1330 1306 -1297 0
-1330 -1306 1297 0
1330 1306 1297 0
1330 -1306 -1297 0
-1331 5 0
-1331 9 0
1331 -5 -9 0
-1332 1330 0
-1332 1331 0
1332 -1330 -1331 0
-1333 -1331 -1330 0
-1333 1331 1330 0
1333 -1331 1330 0
1333 1331 -1330 0
-1334 -1304 -1301 0
-1334 1304 1301 0
1334 -1304 1301 0
1334 1304 -1301 0
-1335 3 0
-1335 9 0
1335 -3 -9 0
-1336 1334 0
-1336 1335 0
1336 -1334 -1335 0
-1337 1333 0
-1337 1336 0
1337 -1333 -1336 0
-1338 -1332 0
-1338 -1337 0
1338 1332 1337 0
-1339 1329 0
-1339 -1338 0
1339 -1329 1338 0
-1340 -1328 0
-1340 -1339 0
1340 1328 1339 0
-1341 1325 0
-1341 -1340 0
1341 -1325 1340 0
-1342 -1324 0
-1342 -1341 0
1342 1324 1341 0
-1343 1321 0
-1343 -1342 0
1343 -1321 1342 0
-1344 -1320 0
-1344 -1343 0
1344 1320 1343 0
-1345 1344 -1317 0
-1345 -1344 1317 0
1345 1344 1317 0
1345 -1344 -1317 0
-1346 8 0
-1346 22 0
1346 -8 -22 0
-1347 -1346 -1345 0
-1347 1346 1345 0
1347 -1346 1345 0
1347 1346 -1345 0
-1348 1342 -1321 0
-1348 -1342 1321 0
1348 1342 1321 0
1348 -1342 -1321 0
-1349 8 0
-1349 21 0
1349 -8 -21 0
-1350 1348 0
-1350 1349 0
1350 -1348 -1349 0
-1351 -1349 -1348 0
-1351 1349 1348 0
1351 -1349 1348 0
1351 1349 -1348 0
-1352 1340 -1325 0
-1352 -1340 1325 0
1352 1340 1325 0
1352 -1340 -1325 0
-1353 8 0
-1353 20 0
1353 -8 -20 0
-1354 1352 0
-1354 1353 0
1354 -1352 -1353 0
-1355 -1353 -1352 0
-1355 1353 1352 0
1355 -1353 1352 0
1355 1353 -1352 0
-1356 1338 -1329 0
-1356 -1338 1329 0
1356 1338 1329 0
1356 -1338 -1329 0
-1357 5 0
-1357 8 0
1357 -5 -8 0
-1358 1356 0
-1358 1357 0
1358 -1356 -1357 0
-1359 -1357 -1356 0
-1359 1357 1356 0
1359 -1357 1356 0
1359 1357 -1356 0
-1360 -1336 -1333 0
-1360 1336 1333 0
1360 -1336 1333 0
1360 1336 -1333 0
-1361 3 0
-1361 8 0
1361 -3 -8 0
-1362 1360 0
-1362 1361 0
1362 -1360 -1361 0
-1363 1359 0
-1363 1362 0
1363 -1359 -1362 0
-1364 -1358 0
-1364 -1363 0
1364 1358 1363 0
-1365 1355 0
-1365 -1364 0
1365 -1355 1364 0
-1366 -1354 0
-1366 -1365 0
1366 1354 1365 0
-1367 1351 0
-1367 -1366 0
1367 -1351 1366 0
-1368 -1350 0
-1368 -1367 0
1368 1350 1367 0
-1369 1368 -1347 0
-1369 -1368 1347 0
1369 1368 1347 0
1369 -1368 -1347 0
-1370 7 0
-1370 21 0
1370 -7 -21 0
-1371 -1370 -1369 0
-1371 1370 1369 0
1371 -1370 1369 0
1371 1370 -1369 0
-1372 1366 -1351 0
-1372 -1366 1351 0
1372 1366 1351 0
1372 -1366 -1351 0
-1373 7 0
-1373 20 0
1373 -7 -20 0
-1374 1372 0
-1374 1373 0
1374 -1372 -1373 0
-1375 -1373 -1372 0
-1375 1373 1372 0
1375 -1373 1372 0
1375 1373 -1372 0
-1376 1364 -1355 0
-1376 -1364 1355 0
1376 1364 1355 0
1376 -1364 -1355 0
-1377 5 0
-1377 7 0
1377 -5 -7 0
-1378 1376 0
-1378 1377 0
1378 -1376 -1377 0
-1379 -1377 -1376 0
-1379 1377 1376 0
1379 -1377 1376 0
1379 1377 -1376 0
-1380 -1362 -1359 0
-1380 1362 1359 0
1380 -1362 1359 0
1380 1362 -1359 0
-1381 3 0
-1381 7 0
1381 -3 -7 0
-1382 1380 0
-1382 1381 0
1382 -1380 -1381 0
-1383 1379 0
-1383 1382 0
1383 -1379 -1382 0
-1384 -1378 0
-1384 -1383 0
1384 1378 1383 0
-1385 1375 0
-1385 -1384 0
1385 -1375 1384 0
-1386 -1374 0
-1386 -1385 0
1386 1374 1385 0
-1387 1386 -1371 0
-1387 -1386 1371 0
1387 1386 1371 0
1387 -1386 -1371 0
-1388 6 0
-1388 20 0
1388 -6 -20 0
-1389 -1388 -1387 0
-1389 1388 1387 0
1389 -1388 1387 0
1389 1388 -1387 0
-1390 1384 -1375 0
-1390 -1384 1375 0
1390 1384 1375 0
1390 -1384 -1375 0
-1391 5 0
-1391 6 0
1391 -5 -6 0
-1392 1390 0
-1392 1391 0
1392 -1390 -1391 0
-1393 -1391 -1390 0
-1393 1391 1390 0
1393 -1391 1390 0
1393 1391 -1390 0
-1394 -1382 -1379 0
-1394 1382 1379 0
1394 -1382 1379 0
1394 1382 -1379 0
-1395 3 0
-1395 6 0
1395 -3 -6 0
-1396 1394 0
-1396 1395 0
1396 -1394 -1395 0
-1397 1393 0
-1397 1396 0
1397 -1393 -1396 0
-1398 -1392 0
-1398 -1397 0
1398 1392 1397 0
-1399 1398 -1389 0
-1399 -1398 1389 0
1399 1398 1389 0
1399 -1398 -1389 0
-1400 4 0
-1400 5 0
1400 -4 -5 0
-1401 -1400 -1399 0
-1401 1400 1399 0
1401 -1400 1399 0
1401 1400 -1399 0
-1402 -1396 -1393 0
-1402 1396 1393 0
1402 -1396 1393 0
1402 1396 -1393 0
-1403 3 0
-1403 4 0
1403 -3 -4 0
-1404 1402 0
-1404 1403 0
1404 -1402 -1403 0
-1405 -1404 -1401 0
-1405 1404 1401 0
1405 -1404 1401 0
1405 1404 -1401 0
-1406 2 0
-1406 3 0
1406 -2 -3 0
-1407 -1406 -1405 0
-1407 1406 1405 0
1407 -1406 1405 0
1407 1406 -1405 0
-1408 1407 -49 0
-1408 -1407 49 0
-1409 -1403 -1402 0
-1409 1403 1402 0
1409 -1403 1402 0
1409 1403 -1402 0
-1410 1409 -50 0
-1410 -1409 50 0
-1411 1408 0
-1411 1410 0
-1412 -1395 -1394 0
-1412 1395 1394 0
1412 -1395 1394 0
1412 1395 -1394 0
-1413 1412 -51 0
-1413 -1412 51 0
-1414 1411 0
-1414 1413 0
-1415 -1381 -1380 0
-1415 1381 1380 0
1415 -1381 1380 0
1415 1381 -1380 0
-1416 1415 -52 0
-1416 -1415 52 0
-1417 1414 0
-1417 1416 0
-1418 -1361 -1360 0
-1418 1361 1360 0
1418 -1361 1360 0
1418 1361 -1360 0
-1419 1418 -53 0
-1419 -1418 53 0
-1420 1417 0
-1420 1419 0
-1421 -1335 -1334 0
-1421 1335 1334 0
1421 -1335 1334 0
1421 1335 -1334 0
-1422 1421 -54 0
-1422 -1421 54 0
-1423 1420 0
-1423 1422 0
-1424 -1303 -1302 0
-1424 1303 1302 0
1424 -1303 1302 0
1424 1303 -1302 0
-1425 1424 -55 0
-1425 -1424 55 0
-1426 1423 0
-1426 1425 0
-1427 -1265 -1264 0
-1427 1265 1264 0
1427 -1265 1264 0
1427 1265 -1264 0
-1428 1427 -56 0
-1428 -1427 56 0
-1429 1426 0
-1429 1428 0
-1430 -1221 -1220 0
-1430 1221 1220 0
1430 -1221 1220 0
1430 1221 -1220 0
-1431 1430 -57 0
-1431 -1430 57 0
-1432 1429 0
-1432 1431 0
-1433 -1171 -1170 0
-1433 1171 1170 0
1433 -1171 1170 0
1433 1171 -1170 0
-1434 1433 -58 0
-1434 -1433 58 0
-1435 1432 0
-1435 1434 0
-1436 -1115 -1114 0
-1436 1115 1114 0
1436 -1115 1114 0
1436 1115 -1114 0
-1437 1436 -59 0
-1437 -1436 59 0
-1438 1435 0
-1438 1437 0
-1439 -1053 -1052 0
-1439 1053 1052 0
1439 -1053 1052 0
1439 1053 -1052 0
-1440 1439 -60 0
-1440 -1439 60 0
-1441 1438 0
-1441 1440 0
-1442 -985 -984 0
-1442 985 984 0
1442 -985 984 0
1442 985 -984 0
-1443 1442 -61 0
-1443 -1442 61 0
-1444 1441 0
-1444 1443 0
-1445 -911 -910 0
-1445 911 910 0
1445 -911 910 0
1445 911 -910 0
-1446 1445 -62 0
-1446 -1445 62 0
-1447 1444 0
-1447 1446 0
-1448 -831 -830 0
-1448 831 830 0
1448 -831 830 0
1448 831 -830 0
-1449 1448 -63 0
-1449 -1448 63 0
-1450 1447 0
-1450 1449 0
-1451 3 0
-1451 19 0
1451 -3 -19 0
-1452 1451 -64 0
-1452 -1451 64 0
-1453 1450 0
-1453 1452 0
-1454 774 0
-1454 1453 0
-1455 -95 0
-1455 1454 0
1455 0
