p cnf 675 2019
45 34 1 0
45 -34 -1 0
46 35 24 0
46 -35 -24 0
47 -45 -46 0
48 36 25 0
48 -36 -25 0
49 -47 -48 0
50 37 26 0
50 -37 -26 0
51 -49 -50 0
52 38 27 0
52 -38 -27 0
53 -51 -52 0
54 39 28 0
54 -39 -28 0
55 -53 -54 0
56 40 29 0
56 -40 -29 0
57 -55 -56 0
58 41 30 0
58 -41 -30 0
59 -57 -58 0
60 42 31 0
60 -42 -31 0
61 -59 -60 0
62 43 32 0
62 -43 -32 0
63 -61 -62 0
64 44 33 0
64 -44 -33 0
65 -63 -64 0
-66 2 0
-66 3 0
66 -2 -3 0
-67 4 0
-67 5 0
67 -4 -5 0
-68 -67 -66 0
-68 67 66 0
68 -67 66 0
68 67 -66 0
-69 3 0
-69 4 0
69 -3 -4 0
-70 5 0
-70 6 0
70 -5 -6 0
-71 69 0
-71 70 0
71 -69 -70 0
-72 -70 -69 0
-72 70 69 0
72 -70 69 0
72 70 -69 0
-73 3 0
-73 6 0
73 -3 -6 0
-74 5 0
-74 7 0
74 -5 -7 0
-75 73 0
-75 74 0
75 -73 -74 0
-76 -74 -73 0
-76 74 73 0
76 -74 73 0
76 74 -73 0
-77 3 0
-77 7 0
77 -3 -7 0
-78 5 0
-78 8 0
78 -5 -8 0
-79 77 0
-79 78 0
79 -77 -78 0
-80 -78 -77 0
-80 78 77 0
80 -78 77 0
80 78 -77 0
-81 3 0
-81 8 0
81 -3 -8 0
-82 5 0
-82 9 0
82 -5 -9 0
-83 81 0
-83 82 0
83 -81 -82 0
-84 -82 -81 0
-84 82 81 0
84 -82 81 0
84 82 -81 0
-85 3 0
-85 9 0
85 -3 -9 0
-86 5 0
-86 10 0
86 -5 -10 0
-87 85 0
-87 86 0
87 -85 -86 0
-88 -86 -85 0
-88 86 85 0
88 -86 85 0
88 86 -85 0
-89 3 0
-89 10 0
89 -3 -10 0
-90 5 0
-90 11 0
90 -5 -11 0
-91 89 0
-91 90 0
91 -89 -90 0
-92 -90 -89 0
-92 90 89 0
92 -90 89 0
92 90 -89 0
-93 3 0
-93 11 0
93 -3 -11 0
-94 5 0
-94 12 0
94 -5 -12 0
-95 93 0
-95 94 0
95 -93 -94 0
-96 -94 -93 0
-96 94 93 0
96 -94 93 0
96 94 -93 0
-97 3 0
-97 12 0
97 -3 -12 0
-98 5 0
-98 13 0
98 -5 -13 0
-99 97 0
-99 98 0
99 -97 -98 0
-100 -98 -97 0
-100 98 97 0
100 -98 97 0
100 98 -97 0
-101 3 0
-101 13 0
101 -3 -13 0
-102 5 0
-102 14 0
102 -5 -14 0
-103 101 0
-103 102 0
103 -101 -102 0
-104 100 0
-104 103 0
104 -100 -103 0
-105 -99 0
-105 -104 0
105 99 104 0
-106 96 0
-106 -105 0
106 -96 105 0
-107 -95 0
-107 -106 0
107 95 106 0
-108 92 0
-108 -107 0
108 -92 107 0
-109 -91 0
-109 -108 0
109 91 108 0
-110 88 0
-110 -109 0
110 -88 109 0
-111 -87 0
-111 -110 0
111 87 110 0
-112 84 0
-112 -111 0
112 -84 111 0
-113 -83 0
-113 -112 0
113 83 112 0
-114 80 0
-114 -113 0
114 -80 113 0
-115 -79 0
-115 -114 0
115 79 114 0
-116 76 0
-116 -115 0
116 -76 115 0
-117 -75 0
-117 -116 0
117 75 116 0
-118 72 0
-118 -117 0
118 -72 117 0
-119 -71 0
-119 -118 0
119 71 118 0
-120 119 -68 0
-120 -119 68 0
120 119 68 0
120 -119 -68 0
-121 6 0
-121 15 0
121 -6 -15 0
-122 -121 -120 0
-122 121 120 0
122 -121 120 0
122 121 -120 0
-123 117 -72 0
-123 -117 72 0
123 117 72 0
123 -117 -72 0
-124 7 0
-124 15 0
124 -7 -15 0
-125 123 0
-125 124 0
125 -123 -124 0
-126 -124 -123 0
-126 124 123 0
126 -124 123 0
126 124 -123 0
-127 115 -76 0
-127 -115 76 0
127 115 76 0
127 -115 -76 0
-128 8 0
-128 15 0
128 -8 -15 0
-129 127 0
-129 128 0
129 -127 -128 0
-130 -128 -127 0
-130 128 127 0
130 -128 127 0
130 128 -127 0
-131 113 -80 0
-131 -113 80 0
131 113 80 0
131 -113 -80 0
-132 9 0
-132 15 0
132 -9 -15 0
-133 131 0
-133 132 0
133 -131 -132 0
-134 -132 -131 0
-134 132 131 0
134 -132 131 0
134 132 -131 0
-135 111 -84 0
-135 -111 84 0
135 111 84 0
135 -111 -84 0
-136 10 0
-136 15 0
136 -10 -15 0
-137 135 0
-137 136 0
137 -135 -136 0
-138 -136 -135 0
-138 136 135 0
138 -136 135 0
138 136 -135 0
-139 109 -88 0
-139 -109 88 0
139 109 88 0
139 -109 -88 0
-140 11 0
-140 15 0
140 -11 -15 0
-141 139 0
-141 140 0
141 -139 -140 0
-142 -140 -139 0
-142 140 139 0
142 -140 139 0
142 140 -139 0
-143 107 -92 0
-143 -107 92 0
143 107 92 0
143 -107 -92 0
-144 12 0
-144 15 0
144 -12 -15 0
-145 143 0
-145 144 0
145 -143 -144 0
-146 -144 -143 0
-146 144 143 0
146 -144 143 0
146 144 -143 0
-147 105 -96 0
-147 -105 96 0
147 105 96 0
147 -105 -96 0
-148 13 0
-148 15 0
148 -13 -15 0
-149 147 0
-149 148 0
149 -147 -148 0
-150 -148 -147 0
-150 148 147 0
150 -148 147 0
150 148 -147 0
-151 -103 -100 0
-151 103 100 0
151 -103 100 0
151 103 -100 0
-152 14 0
-152 15 0
152 -14 -15 0
-153 151 0
-153 152 0
153 -151 -152 0
-154 150 0
-154 153 0
154 -150 -153 0
-155 -149 0
-155 -154 0
155 149 154 0
-156 146 0
-156 -155 0
156 -146 155 0
-157 -145 0
-157 -156 0
157 145 156 0
-158 142 0
-158 -157 0
158 -142 157 0
-159 -141 0
-159 -158 0
159 141 158 0
-160 138 0
-160 -159 0
160 -138 159 0
-161 -137 0
-161 -160 0
161 137 160 0
-162 134 0
-162 -161 0
162 -134 161 0
-163 -133 0
-163 -162 0
163 133 162 0
-164 130 0
-164 -163 0
164 -130 163 0
-165 -129 0
-165 -164 0
165 129 164 0
-166 126 0
-166 -165 0
166 -126 165 0
-167 -125 0
-167 -166 0
167 125 166 0
-168 167 -122 0
-168 -167 122 0
168 167 122 0
168 -167 -122 0
-169 7 0
-169 16 0
169 -7 -16 0
-170 -169 -168 0
-170 169 168 0
170 -169 168 0
170 169 -168 0
-171 165 -126 0
-171 -165 126 0
171 165 126 0
171 -165 -126 0
-172 8 0
-172 16 0
172 -8 -16 0
-173 171 0
-173 172 0
173 -171 -172 0
-174 -172 -171 0
-174 172 171 0
174 -172 171 0
174 172 -171 0
-175 163 -130 0
-175 -163 130 0
175 163 130 0
175 -163 -130 0
-176 9 0
-176 16 0
176 -9 -16 0
-177 175 0
-177 176 0
177 -175 -176 0
-178 -176 -175 0
-178 176 175 0
178 -176 175 0
178 176 -175 0
-179 161 -134 0
-179 -161 134 0
179 161 134 0
179 -161 -134 0
-180 10 0
-180 16 0
180 -10 -16 0
-181 179 0
-181 180 0
181 -179 -180 0
-182 -180 -179 0
-182 180 179 0
182 -180 179 0
182 180 -179 0
-183 159 -138 0
-183 -159 138 0
183 159 138 0
183 -159 -138 0
-184 11 0
-184 16 0
184 -11 -16 0
-185 183 0
-185 184 0
185 -183 -184 0
-186 -184 -183 0
-186 184 183 0
186 -184 183 0
186 184 -183 0
-187 157 -142 0
-187 -157 142 0
187 157 142 0
187 -157 -142 0
-188 12 0
-188 16 0
188 -12 -16 0
-189 187 0
-189 188 0
189 -187 -188 0
-190 -188 -187 0
-190 188 187 0
190 -188 187 0
190 188 -187 0
-191 155 -146 0
-191 -155 146 0
191 155 146 0
191 -155 -146 0
-192 13 0
-192 16 0
192 -13 -16 0
-193 191 0
-193 192 0
193 -191 -192 0
-194 -192 -191 0
-194 192 191 0
194 -192 191 0
194 192 -191 0
-195 -153 -150 0
-195 153 150 0
195 -153 150 0
195 153 -150 0
-196 14 0
-196 16 0
196 -14 -16 0
-197 195 0
-197 196 0
197 -195 -196 0
-198 194 0
-198 197 0
198 -194 -197 0
-199 -193 0
-199 -198 0
199 193 198 0
-200 190 0
-200 -199 0
200 -190 199 0
-201 -189 0
-201 -200 0
201 189 200 0
-202 186 0
-202 -201 0
202 -186 201 0
-203 -185 0
-203 -202 0
203 185 202 0
-204 182 0
-204 -203 0
204 -182 203 0
-205 -181 0
-205 -204 0
205 181 204 0
-206 178 0
-206 -205 0
206 -178 205 0
-207 -177 0
-207 -206 0
207 177 206 0
-208 174 0
-208 -207 0
208 -174 207 0
-209 -173 0
-209 -208 0
209 173 208 0
-210 209 -170 0
-210 -209 170 0
210 209 170 0
210 -209 -170 0
-211 8 0
-211 17 0
211 -8 -17 0
-212 -211 -210 0
-212 211 210 0
212 -211 210 0
212 211 -210 0
-213 207 -174 0
-213 -207 174 0
213 207 174 0
213 -207 -174 0
-214 9 0
-214 17 0
214 -9 -17 0
-215 213 0
-215 214 0
215 -213 -214 0
-216 -214 -213 0
-216 214 213 0
216 -214 213 0
216 214 -213 0
-217 205 -178 0
-217 -205 178 0
217 205 178 0
217 -205 -178 0
-218 10 0
-218 17 0
218 -10 -17 0
-219 217 0
-219 218 0
219 -217 -218 0
-220 -218 -217 0
-220 218 217 0
220 -218 217 0
220 218 -217 0
-221 203 -182 0
-221 -203 182 0
221 203 182 0
221 -203 -182 0
-222 11 0
-222 17 0
222 -11 -17 0
-223 221 0
-223 222 0
223 -221 -222 0
-224 -222 -221 0
-224 222 221 0
224 -222 221 0
224 222 -221 0
-225 201 -186 0
-225 -201 186 0
225 201 186 0
225 -201 -186 0
-226 12 0
-226 17 0
226 -12 -17 0
-227 225 0
-227 226 0
227 -225 -226 0
-228 -226 -225 0
-228 226 225 0
228 -226 225 0
228 226 -225 0
-229 199 -190 0
-229 -199 190 0
229 199 190 0
229 -199 -190 0
-230 13 0
-230 17 0
230 -13 -17 0
-231 229 0
-231 230 0
231 -229 -230 0
-232 -230 -229 0
-232 230 229 0
232 -230 229 0
232 230 -229 0
-233 -197 -194 0
-233 197 194 0
233 -197 194 0
233 197 -194 0
-234 14 0
-234 17 0
234 -14 -17 0
-235 233 0
-235 234 0
235 -233 -234 0
-236 232 0
-236 235 0
236 -232 -235 0
-237 -231 0
-237 -236 0
237 231 236 0
-238 228 0
-238 -237 0
238 -228 237 0
-239 -227 0
-239 -238 0
239 227 238 0
-240 224 0
-240 -239 0
240 -224 239 0
-241 -223 0
-241 -240 0
241 223 240 0
-242 220 0
-242 -241 0
242 -220 241 0
-243 -219 0
-243 -242 0
243 219 242 0
-244 216 0
-244 -243 0
244 -216 243 0
-245 -215 0
-245 -244 0
245 215 244 0
-246 245 -212 0
-246 -245 212 0
246 245 212 0
246 -245 -212 0
-247 9 0
-247 18 0
247 -9 -18 0
-248 -247 -246 0
-248 247 246 0
248 -247 246 0
248 247 -246 0
-249 243 -216 0
-249 -243 216 0
249 243 216 0
249 -243 -216 0
-250 10 0
-250 18 0
250 -10 -18 0
-251 249 0
-251 250 0
251 -249 -250 0
-252 -250 -249 0
-252 250 249 0
252 -250 249 0
252 250 -249 0
-253 241 -220 0
-253 -241 220 0
253 241 220 0
253 -241 -220 0
-254 11 0
-254 18 0
254 -11 -18 0
-255 253 0
-255 254 0
255 -253 -254 0
-256 -254 -253 0
-256 254 253 0
256 -254 253 0
256 254 -253 0
-257 239 -224 0
-257 -239 224 0
257 239 224 0
257 -239 -224 0
-258 12 0
-258 18 0
258 -12 -18 0
-259 257 0
-259 258 0
259 -257 -258 0
-260 -258 -257 0
-260 258 257 0
260 -258 257 0
260 258 -257 0
-261 237 -228 0
-261 -237 228 0
261 237 228 0
261 -237 -228 0
-262 13 0
-262 18 0
262 -13 -18 0
-263 261 0
-263 262 0
263 -261 -262 0
-264 -262 -261 0
-264 262 261 0
264 -262 261 0
264 262 -261 0
-265 -235 -232 0
-265 235 232 0
265 -235 232 0
265 235 -232 0
-266 14 0
-266 18 0
266 -14 -18 0
-267 265 0
-267 266 0
267 -265 -266 0
-268 264 0
-268 267 0
268 -264 -267 0
-269 -263 0
-269 -268 0
269 263 268 0
-270 260 0
-270 -269 0
270 -260 269 0
-271 -259 0
-271 -270 0
271 259 270 0
-272 256 0
-272 -271 0
272 -256 271 0
-273 -255 0
-273 -272 0
273 255 272 0
-274 252 0
-274 -273 0
274 -252 273 0
-275 -251 0
-275 -274 0
275 251 274 0
-276 275 -248 0
-276 -275 248 0
276 275 248 0
276 -275 -248 0
-277 10 0
-277 19 0
277 -10 -19 0
-278 -277 -276 0
-278 277 276 0
278 -277 276 0
278 277 -276 0
-279 273 -252 0
-279 -273 252 0
279 273 252 0
279 -273 -252 0
-280 11 0
-280 19 0
280 -11 -19 0
-281 279 0
-281 280 0
281 -279 -280 0
-282 -280 -279 0
-282 280 279 0
282 -280 279 0
282 280 -279 0
-283 271 -256 0
-283 -271 256 0
283 271 256 0
283 -271 -256 0
-284 12 0
-284 19 0
284 -12 -19 0
-285 283 0
-285 284 0
285 -283 -284 0
-286 -284 -283 0
-286 284 283 0
286 -284 283 0
286 284 -283 0
-287 269 -260 0
-287 -269 260 0
287 269 260 0
287 -269 -260 0
-288 13 0
-288 19 0
288 -13 -19 0
-289 287 0
-289 288 0
289 -287 -288 0
-290 -288 -287 0
-290 288 287 0
290 -288 287 0
290 288 -287 0
-291 -267 -264 0
-291 267 264 0
291 -267 264 0
291 267 -264 0
-292 14 0
-292 19 0
292 -14 -19 0
-293 291 0
-293 292 0
293 -291 -292 0
-294 290 0
-294 293 0
294 -290 -293 0
-295 -289 0
-295 -294 0
295 289 294 0
-296 286 0
-296 -295 0
296 -286 295 0
-297 -285 0
-297 -296 0
297 285 296 0
-298 282 0
-298 -297 0
298 -282 297 0
-299 -281 0
-299 -298 0
299 281 298 0
-300 299 -278 0
-300 -299 278 0
300 299 278 0
300 -299 -278 0
-301 11 0
-301 20 0
301 -11 -20 0
-302 -301 -300 0
-302 301 300 0
302 -301 300 0
302 301 -300 0
-303 297 -282 0
-303 -297 282 0
303 297 282 0
303 -297 -282 0
-304 12 0
-304 20 0
304 -12 -20 0
-305 303 0
-305 304 0
305 -303 -304 0
-306 -304 -303 0
-306 304 303 0
306 -304 303 0
306 304 -303 0
-307 295 -286 0
-307 -295 286 0
307 295 286 0
307 -295 -286 0
-308 13 0
-308 20 0
308 -13 -20 0
-309 307 0
-309 308 0
309 -307 -308 0
-310 -308 -307 0
-310 308 307 0
310 -308 307 0
310 308 -307 0
-311 -293 -290 0
-311 293 290 0
311 -293 290 0
311 293 -290 0
-312 14 0
-312 20 0
312 -14 -20 0
-313 311 0
-313 312 0
313 -311 -312 0
-314 310 0
-314 313 0
314 -310 -313 0
-315 -309 0
-315 -314 0
315 309 314 0
-316 306 0
-316 -315 0
316 -306 315 0
-317 -305 0
-317 -316 0
317 305 316 0
-318 317 -302 0
-318 -317 302 0
318 317 302 0
318 -317 -302 0
-319 12 0
-319 21 0
319 -12 -21 0
-320 -319 -318 0
-320 319 318 0
320 -319 318 0
320 319 -318 0
-321 315 -306 0
-321 -315 306 0
321 315 306 0
321 -315 -306 0
-322 13 0
-322 21 0
322 -13 -21 0
-323 321 0
-323 322 0
323 -321 -322 0
-324 -322 -321 0
-324 322 321 0
324 -322 321 0
324 322 -321 0
-325 -313 -310 0
-325 313 310 0
325 -313 310 0
325 313 -310 0
-326 14 0
-326 21 0
326 -14 -21 0
-327 325 0
-327 326 0
327 -325 -326 0
-328 324 0
-328 327 0
328 -324 -327 0
-329 -323 0
-329 -328 0
329 323 328 0
-330 329 -320 0
-330 -329 320 0
330 329 320 0
330 -329 -320 0
-331 13 0
-331 22 0
331 -13 -22 0
-332 -331 -330 0
-332 331 330 0
332 -331 330 0
332 331 -330 0
-333 -327 -324 0
-333 327 324 0
333 -327 324 0
333 327 -324 0
-334 14 0
-334 22 0
334 -14 -22 0
-335 333 0
-335 334 0
335 -333 -334 0
-336 -335 -332 0
-336 335 332 0
336 -335 332 0
336 335 -332 0
-337 14 0
-337 23 0
337 -14 -23 0
-338 -337 -336 0
-338 337 336 0
338 -337 336 0
338 337 -336 0
-339 338 -1 0
-339 -338 1 0
-340 -334 -333 0
-340 334 333 0
340 -334 333 0
340 334 -333 0
-341 340 -24 0
-341 -340 24 0
-342 339 0
-342 341 0
-343 -326 -325 0
-343 326 325 0
343 -326 325 0
343 326 -325 0
-344 343 -25 0
-344 -343 25 0
-345 342 0
-345 344 0
-346 -312 -311 0
-346 312 311 0
346 -312 311 0
346 312 -311 0
-347 346 -26 0
-347 -346 26 0
-348 345 0
-348 347 0
-349 -292 -291 0
-349 292 291 0
349 -292 291 0
349 292 -291 0
-350 349 -27 0
-350 -349 27 0
-351 348 0
-351 350 0
-352 -266 -265 0
-352 266 265 0
352 -266 265 0
352 266 -265 0
-353 352 -28 0
-353 -352 28 0
-354 351 0
-354 353 0
-355 -234 -233 0
-355 234 233 0
355 -234 233 0
355 234 -233 0
-356 355 -29 0
-356 -355 29 0
-357 354 0
-357 356 0
-358 -196 -195 0
-358 196 195 0
358 -196 195 0
358 196 -195 0
-359 358 -30 0
-359 -358 30 0
-360 357 0
-360 359 0
-361 -152 -151 0
-361 152 151 0
361 -152 151 0
361 152 -151 0
-362 361 -31 0
-362 -361 31 0
-363 360 0
-363 362 0
-364 -102 -101 0
-364 102 101 0
364 -102 101 0
364 102 -101 0
-365 364 -32 0
-365 -364 32 0
-366 363 0
-366 365 0
-367 3 0
-367 14 0
367 -3 -14 0
-368 367 -33 0
-368 -367 33 0
-369 366 0
-369 368 0
-370 14 0
-370 23 0
370 -14 -23 0
-371 13 0
-371 22 0
371 -13 -22 0
-372 -371 -370 0
-372 371 370 0
372 -371 370 0
372 371 -370 0
-373 14 0
-373 22 0
373 -14 -22 0
-374 13 0
-374 21 0
374 -13 -21 0
-375 373 0
-375 374 0
375 -373 -374 0
-376 -374 -373 0
-376 374 373 0
376 -374 373 0
376 374 -373 0
-377 14 0
-377 21 0
377 -14 -21 0
-378 13 0
-378 20 0
378 -13 -20 0
-379 377 0
-379 378 0
379 -377 -378 0
-380 -378 -377 0
-380 378 377 0
380 -378 377 0
380 378 -377 0
-381 14 0
-381 20 0
381 -14 -20 0
-382 13 0
-382 19 0
382 -13 -19 0
-383 381 0
-383 382 0
383 -381 -382 0
-384 -382 -381 0
-384 382 381 0
384 -382 381 0
384 382 -381 0
-385 14 0
-385 19 0
385 -14 -19 0
-386 13 0
-386 18 0
386 -13 -18 0
-387 385 0
-387 386 0
387 -385 -386 0
-388 -386 -385 0
-388 386 385 0
388 -386 385 0
388 386 -385 0
-389 14 0
-389 18 0
389 -14 -18 0
-390 13 0
-390 17 0
390 -13 -17 0
-391 389 0
-391 390 0
391 -389 -390 0
-392 -390 -389 0
-392 390 389 0
392 -390 389 0
392 390 -389 0
-393 14 0
-393 17 0
393 -14 -17 0
-394 13 0
-394 16 0
394 -13 -16 0
-395 393 0
-395 394 0
395 -393 -394 0
-396 -394 -393 0
-396 394 393 0
396 -394 393 0
396 394 -393 0
-397 14 0
-397 16 0
397 -14 -16 0
-398 13 0
-398 15 0
398 -13 -15 0
-399 397 0
-399 398 0
399 -397 -398 0
-400 -398 -397 0
-400 398 397 0
400 -398 397 0
400 398 -397 0
-401 14 0
-401 15 0
401 -14 -15 0
-402 5 0
-402 13 0
402 -5 -13 0
-403 401 0
-403 402 0
403 -401 -402 0
-404 -402 -401 0
-404 402 401 0
404 -402 401 0
404 402 -401 0
-405 5 0
-405 14 0
405 -5 -14 0
-406 3 0
-406 13 0
406 -3 -13 0
-407 405 0
-407 406 0
407 -405 -406 0
-408 404 0
-408 407 0
408 -404 -407 0
-409 -403 0
-409 -408 0
409 403 408 0
-410 400 0
-410 -409 0
410 -400 409 0
-411 -399 0
-411 -410 0
411 399 410 0
-412 396 0
-412 -411 0
412 -396 411 0
-413 -395 0
-413 -412 0
413 395 412 0
-414 392 0
-414 -413 0
414 -392 413 0
-415 -391 0
-415 -414 0
415 391 414 0
-416 388 0
-416 -415 0
416 -388 415 0
-417 -387 0
-417 -416 0
417 387 416 0
-418 384 0
-418 -417 0
418 -384 417 0
-419 -383 0
-419 -418 0
419 383 418 0
-420 380 0
-420 -419 0
420 -380 419 0
-421 -379 0
-421 -420 0
421 379 420 0
-422 376 0
-422 -421 0
422 -376 421 0
-423 -375 0
-423 -422 0
423 375 422 0
-424 423 -372 0
-424 -423 372 0
424 423 372 0
424 -423 -372 0
-425 12 0
-425 21 0
425 -12 -21 0
-426 -425 -424 0
-426 425 424 0
426 -425 424 0
426 425 -424 0
-427 421 -376 0
-427 -421 376 0
427 421 376 0
427 -421 -376 0
-428 12 0
-428 20 0
428 -12 -20 0
-429 427 0
-429 428 0
429 -427 -428 0
-430 -428 -427 0
-430 428 427 0
430 -428 427 0
430 428 -427 0
-431 419 -380 0
-431 -419 380 0
431 419 380 0
431 -419 -380 0
-432 12 0
-432 19 0
432 -12 -19 0
-433 431 0
-433 432 0
433 -431 -432 0
-434 -432 -431 0
-434 432 431 0
434 -432 431 0
434 432 -431 0
-435 417 -384 0
-435 -417 384 0
435 417 384 0
435 -417 -384 0
-436 12 0
-436 18 0
436 -12 -18 0
-437 435 0
-437 436 0
437 -435 -436 0
-438 -436 -435 0
-438 436 435 0
438 -436 435 0
438 436 -435 0
-439 415 -388 0
-439 -415 388 0
439 415 388 0
439 -415 -388 0
-440 12 0
-440 17 0
440 -12 -17 0
-441 439 0
-441 440 0
441 -439 -440 0
-442 -440 -439 0
-442 440 439 0
442 -440 439 0
442 440 -439 0
-443 413 -392 0
-443 -413 392 0
443 413 392 0
443 -413 -392 0
-444 12 0
-444 16 0
444 -12 -16 0
-445 443 0
-445 444 0
445 -443 -444 0
-446 -444 -443 0
-446 444 443 0
446 -444 443 0
446 444 -443 0
-447 411 -396 0
-447 -411 396 0
447 411 396 0
447 -411 -396 0
-448 12 0
-448 15 0
448 -12 -15 0
-449 447 0
-449 448 0
449 -447 -448 0
-450 -448 -447 0
-450 448 447 0
450 -448 447 0
450 448 -447 0
-451 409 -400 0
-451 -409 400 0
451 409 400 0
451 -409 -400 0
-452 5 0
-452 12 0
452 -5 -12 0
-453 451 0
-453 452 0
453 -451 -452 0
-454 -452 -451 0
-454 452 451 0
454 -452 451 0
454 452 -451 0
-455 -407 -404 0
-455 407 404 0
455 -407 404 0
455 407 -404 0
-456 3 0
-456 12 0
456 -3 -12 0
-457 455 0
-457 456 0
457 -455 -456 0
-458 454 0
-458 457 0
458 -454 -457 0
-459 -453 0
-459 -458 0
459 453 458 0
-460 450 0
-460 -459 0
460 -450 459 0
-461 -449 0
-461 -460 0
461 449 460 0
-462 446 0
-462 -461 0
462 -446 461 0
-463 -445 0
-463 -462 0
463 445 462 0
-464 442 0
-464 -463 0
464 -442 463 0
-465 -441 0
-465 -464 0
465 441 464 0
-466 438 0
-466 -465 0
466 -438 465 0
-467 -437 0
-467 -466 0
467 437 466 0
-468 434 0
-468 -467 0
468 -434 467 0
-469 -433 0
-469 -468 0
469 433 468 0
-470 430 0
-470 -469 0
470 -430 469 0
-471 -429 0
-471 -470 0
471 429 470 0
-472 471 -426 0
-472 -471 426 0
472 471 426 0
472 -471 -426 0
-473 11 0
-473 20 0
473 -11 -20 0
-474 -473 -472 0
-474 473 472 0
474 -473 472 0
474 473 -472 0
-475 469 -430 0
-475 -469 430 0
475 469 430 0
475 -469 -430 0
-476 11 0
-476 19 0
476 -11 -19 0
-477 475 0
-477 476 0
477 -475 -476 0
-478 -476 -475 0
-478 476 475 0
478 -476 475 0
478 476 -475 0
-479 467 -434 0
-479 -467 434 0
479 467 434 0
479 -467 -434 0
-480 11 0
-480 18 0
480 -11 -18 0
-481 479 0
-481 480 0
481 -479 -480 0
-482 -480 -479 0
-482 480 479 0
482 -480 479 0
482 480 -479 0
-483 465 -438 0
-483 -465 438 0
483 465 438 0
483 -465 -438 0
-484 11 0
-484 17 0
484 -11 -17 0
-485 483 0
-485 484 0
485 -483 -484 0
-486 -484 -483 0
-486 484 483 0
486 -484 483 0
486 484 -483 0
-487 463 -442 0
-487 -463 442 0
487 463 442 0
487 -463 -442 0
-488 11 0
-488 16 0
488 -11 -16 0
-489 487 0
-489 488 0
489 -487 -488 0
-490 -488 -487 0
-490 488 487 0
490 -488 487 0
490 488 -487 0
-491 461 -446 0
-491 -461 446 0
491 461 446 0
491 -461 -446 0
-492 11 0
-492 15 0
492 -11 -15 0
-493 491 0
-493 492 0
493 -491 -492 0
-494 -492 -491 0
-494 492 491 0
494 -492 491 0
494 492 -491 0
-495 459 -450 0
-495 -459 450 0
495 459 450 0
495 -459 -450 0
-496 5 0
-496 11 0
496 -5 -11 0
-497 495 0
-497 496 0
497 -495 -496 0
-498 -496 -495 0
-498 496 495 0
498 -496 495 0
498 496 -495 0
-499 -457 -454 0
-499 457 454 0
499 -457 454 0
499 457 -454 0
-500 3 0
-500 11 0
500 -3 -11 0
-501 499 0
-501 500 0
501 -499 -500 0
-502 498 0
-502 501 0
502 -498 -501 0
-503 -497 0
-503 -502 0
503 497 502 0
-504 494 0
-504 -503 0
504 -494 503 0
-505 -493 0
-505 -504 0
505 493 504 0
-506 490 0
-506 -505 0
506 -490 505 0
-507 -489 0
-507 -506 0
507 489 506 0
-508 486 0
-508 -507 0
508 -486 507 0
-509 -485 0
-509 -508 0
509 485 508 0
-510 482 0
-510 -509 0
510 -482 509 0
-511 -481 0
-511 -510 0
511 481 510 0
-512 478 0
-512 -511 0
512 -478 511 0
-513 -477 0
-513 -512 0
513 477 512 0
-514 513 -474 0
-514 -513 474 0
514 513 474 0
514 -513 -474 0
-515 10 0
-515 19 0
515 -10 -19 0
-516 -515 -514 0
-516 515 514 0
516 -515 514 0
516 515 -514 0
-517 511 -478 0
-517 -511 478 0
517 511 478 0
517 -511 -478 0
-518 10 0
-518 18 0
518 -10 -18 0
-519 517 0
-519 518 0
519 -517 -518 0
-520 -518 -517 0
-520 518 517 0
520 -518 517 0
520 518 -517 0
-521 509 -482 0
-521 -509 482 0
521 509 482 0
521 -509 -482 0
-522 10 0
-522 17 0
522 -10 -17 0
-523 521 0
-523 522 0
523 -521 -522 0
-524 -522 -521 0
-524 522 521 0
524 -522 521 0
524 522 -521 0
-525 507 -486 0
-525 -507 486 0
525 507 486 0
525 -507 -486 0
-526 10 0
-526 16 0
526 -10 -16 0
-527 525 0
-527 526 0
527 -525 -526 0
-528 -526 -525 0
-528 526 525 0
528 -526 525 0
528 526 -525 0
-529 505 -490 0
-529 -505 490 0
529 505 490 0
529 -505 -490 0
-530 10 0
-530 15 0
530 -10 -15 0
-531 529 0
-531 530 0
531 -529 -530 0
-532 -530 -529 0
-532 530 529 0
532 -530 529 0
532 530 -529 0
-533 503 -494 0
-533 -503 494 0
533 503 494 0
533 -503 -494 0
-534 5 0
-534 10 0
534 -5 -10 0
-535 533 0
-535 534 0
535 -533 -534 0
-536 -534 -533 0
-536 534 533 0
536 -534 533 0
536 534 -533 0
-537 -501 -498 0
-537 501 498 0
537 -501 498 0
537 501 -498 0
-538 3 0
-538 10 0
538 -3 -10 0
-539 537 0
-539 538 0
539 -537 -538 0
-540 536 0
-540 539 0
540 -536 -539 0
-541 -535 0
-541 -540 0
541 535 540 0
-542 532 0
-542 -541 0
542 -532 541 0
-543 -531 0
-543 -542 0
543 531 542 0
-544 528 0
-544 -543 0
544 -528 543 0
-545 -527 0
-545 -544 0
545 527 544 0
-546 524 0
-546 -545 0
546 -524 545 0
-547 -523 0
-547 -546 0
547 523 546 0
-548 520 0
-548 -547 0
548 -520 547 0
-549 -519 0
-549 -548 0
549 519 548 0
-550 549 -516 0
-550 -549 516 0
550 549 516 0
550 -549 -516 0
-551 9 0
-551 18 0
551 -9 -18 0
-552 -551 -550 0
-552 551 550 0
552 -551 550 0
552 551 -550 0
-553 547 -520 0
-553 -547 520 0
553 547 520 0
553 -547 -520 0
-554 9 0
-554 17 0
554 -9 -17 0
-555 553 0
-555 554 0
555 -553 -554 0
-556 -554 -553 0
-556 554 553 0
556 -554 553 0
556 554 -553 0
-557 545 -524 0
-557 -545 524 0
557 545 524 0
557 -545 -524 0
-558 9 0
-558 16 0
558 -9 -16 0
-559 557 0
-559 558 0
559 -557 -558 0
-560 -558 -557 0
-560 558 557 0
560 -558 557 0
560 558 -557 0
-561 543 -528 0
-561 -543 528 0
561 543 528 0
561 -543 -528 0
-562 9 0
-562 15 0
562 -9 -15 0
-563 561 0
-563 562 0
563 -561 -562 0
-564 -562 -561 0
-564 562 561 0
564 -562 561 0
564 562 -561 0
-565 541 -532 0
-565 -541 532 0
565 541 532 0
565 -541 -532 0
-566 5 0
-566 9 0
566 -5 -9 0
-567 565 0
-567 566 0
567 -565 -566 0
-568 -566 -565 0
-568 566 565 0
568 -566 565 0
568 566 -565 0
-569 -539 -536 0
-569 539 536 0
569 -539 536 0
569 539 -536 0
-570 3 0
-570 9 0
570 -3 -9 0
-571 569 0
-571 570 0
571 -569 -570 0
-572 568 0
-572 571 0
572 -568 -571 0
-573 -567 0
-573 -572 0
573 567 572 0
-574 564 0
-574 -573 0
574 -564 573 0
-575 -563 0
-575 -574 0
575 563 574 0
-576 560 0
-576 -575 0
576 -560 575 0
-577 -559 0
-577 -576 0
577 559 576 0
-578 556 0
-578 -577 0
578 -556 577 0
-579 -555 0
-579 -578 0
579 555 578 0
-580 579 -552 0
-580 -579 552 0
580 579 552 0
580 -579 -552 0
-581 8 0
-581 17 0
581 -8 -17 0
-582 -581 -580 0
-582 581 580 0
582 -581 580 0
582 581 -580 0
-583 577 -556 0
-583 -577 556 0
583 577 556 0
583 -577 -556 0
-584 8 0
-584 16 0
584 -8 -16 0
-585 583 0
-585 584 0
585 -583 -584 0
-586 -584 -583 0
-586 584 583 0
586 -584 583 0
586 584 -583 0
-587 575 -560 0
-587 -575 560 0
587 575 560 0
587 -575 -560 0
-588 8 0
-588 15 0
588 -8 -15 0
-589 587 0
-589 588 0
589 -587 -588 0
-590 -588 -587 0
-590 588 587 0
590 -588 587 0
590 588 -587 0
-591 573 -564 0
-591 -573 564 0
591 573 564 0
591 -573 -564 0
-592 5 0
-592 8 0
592 -5 -8 0
-593 591 0
-593 592 0
593 -591 -592 0
-594 -592 -591 0
-594 592 591 0
594 -592 591 0
594 592 -591 0
-595 -571 -568 0
-595 571 568 0
595 -571 568 0
595 571 -568 0
-596 3 0
-596 8 0
596 -3 -8 0
-597 595 0
-597 596 0
597 -595 -596 0
-598 594 0
-598 597 0
598 -594 -597 0
-599 -593 0
-599 -598 0
599 593 598 0
-600 590 0
-600 -599 0
600 -590 599 0
-601 -589 0
-601 -600 0
601 589 600 0
-602 586 0
-602 -601 0
602 -586 601 0
-603 -585 0
-603 -602 0
603 585 602 0
-604 603 -582 0
-604 -603 582 0
604 603 582 0
604 -603 -582 0
-605 7 0
-605 16 0
605 -7 -16 0
-606 -605 -604 0
-606 605 604 0
606 -605 604 0
606 605 -604 0
-607 601 -586 0
-607 -601 586 0
607 601 586 0
607 -601 -586 0
-608 7 0
-608 15 0
608 -7 -15 0
-609 607 0
-609 608 0
609 -607 -608 0
-610 -608 -607 0
-610 608 607 0
610 -608 607 0
610 608 -607 0
-611 599 -590 0
-611 -599 590 0
611 599 590 0
611 -599 -590 0
-612 5 0
-612 7 0
612 -5 -7 0
-613 611 0
-613 612 0
613 -611 -612 0
-614 -612 -611 0
-614 612 611 0
614 -612 611 0
614 612 -611 0
-615 -597 -594 0
-615 597 594 0
615 -597 594 0
615 597 -594 0
-616 3 0
-616 7 0
616 -3 -7 0
-617 615 0
-617 616 0
617 -615 -616 0
-618 614 0
-618 617 0
618 -614 -617 0
-619 -613 0
-619 -618 0
619 613 618 0
-620 610 0
-620 -619 0
620 -610 619 0
-621 -609 0
-621 -620 0
621 609 620 0
-622 621 -606 0
-622 -621 606 0
622 621 606 0
622 -621 -606 0
-623 6 0
-623 15 0
623 -6 -15 0
-624 -623 -622 0
-624 623 622 0
624 -623 622 0
624 623 -622 0
-625 619 -610 0
-625 -619 610 0
625 619 610 0
625 -619 -610 0
-626 5 0
-626 6 0
626 -5 -6 0
-627 625 0
-627 626 0
627 -625 -626 0
-628 -626 -625 0
-628 626 625 0
628 -626 625 0
628 626 -625 0
-629 -617 -614 0
-629 617 614 0
629 -617 614 0
629 617 -614 0
-630 3 0
-630 6 0
630 -3 -6 0
-631 629 0
-631 630 0
631 -629 -630 0
-632 628 0
-632 631 0
632 -628 -631 0
-633 -627 0
-633 -632 0
633 627 632 0
-634 633 -624 0
-634 -633 624 0
634 633 624 0
634 -633 -624 0
-635 4 0
-635 5 0
635 -4 -5 0
-636 -635 -634 0
-636 635 634 0
636 -635 634 0
636 635 -634 0
-637 -631 -628 0
-637 631 628 0
637 -631 628 0
637 631 -628 0
-638 3 0
-638 4 0
638 -3 -4 0
-639 637 0
-639 638 0
639 -637 -638 0
-640 -639 -636 0
-640 639 636 0
640 -639 636 0
640 639 -636 0
-641 2 0
-641 3 0
641 -2 -3 0
-642 -641 -640 0
-642 641 640 0
642 -641 640 0
642 641 -640 0
-643 642 -34 0
-643 -642 34 0
-644 -638 -637 0
-644 638 637 0
644 -638 637 0
644 638 -637 0
-645 644 -35 0
-645 -644 35 0
-646 643 0
-646 645 0
-647 -630 -629 0
-647 630 629 0
647 -630 629 0
647 630 -629 0
-648 647 -36 0
-648 -647 36 0
-649 646 0
-649 648 0
-650 -616 -615 0
-650 616 615 0
650 -616 615 0
650 616 -615 0
-651 650 -37 0
-651 -650 37 0
-652 649 0
-652 651 0
-653 -596 -595 0
-653 596 595 0
653 -596 595 0
653 596 -595 0
-654 653 -38 0
-654 -653 38 0
-655 652 0
-655 654 0
-656 -570 -569 0
-656 570 569 0
656 -570 569 0
656 570 -569 0
-657 656 -39 0
-657 -656 39 0
-658 655 0
-658 657 0
-659 -538 -537 0
-659 538 537 0
659 -538 537 0
659 538 -537 0
-660 659 -40 0
-660 -659 40 0
-661 658 0
-661 660 0
-662 -500 -499 0
-662 500 499 0
662 -500 499 0
662 500 -499 0
-663 662 -41 0
-663 -662 41 0
-664 661 0
-664 663 0
-665 -456 -455 0
-665 456 455 0
665 -456 455 0
665 456 -455 0
-666 665 -42 0
-666 -665 42 0
-667 664 0
-667 666 0
-668 -406 -405 0
-668 406 405 0
668 -406 405 0
668 406 -405 0
-669 668 -43 0
-669 -668 43 0
-670 667 0
-670 669 0
-671 3 0
-671 14 0
671 -3 -14 0
-672 671 -44 0
-672 -671 44 0
-673 670 0
-673 672 0
-674 369 0
-674 673 0
-675 -65 0
-675 674 0
675 0
