p cnf 351 1002
33 25 1 0
33 -25 -1 0
34 26 18 0
34 -26 -18 0
35 -33 -34 0
36 27 19 0
36 -27 -19 0
37 -35 -36 0
38 28 20 0
38 -28 -20 0
39 -37 -38 0
40 29 21 0
40 -29 -21 0
41 -39 -40 0
42 30 22 0
42 -30 -22 0
43 -41 -42 0
44 31 23 0
44 -31 -23 0
45 -43 -44 0
46 32 24 0
46 -32 -24 0
47 -45 -46 0
-48 2 0
-48 3 0
48 -2 -3 0
-49 4 0
-49 5 0
49 -4 -5 0
-50 -49 -48 0
-50 49 48 0
50 -49 48 0
50 49 -48 0
-51 3 0
-51 4 0
51 -3 -4 0
-52 5 0
-52 6 0
52 -5 -6 0
-53 51 0
-53 52 0
53 -51 -52 0
-54 -52 -51 0
-54 52 51 0
54 -52 51 0
54 52 -51 0
-55 3 0
-55 6 0
55 -3 -6 0
-56 5 0
-56 7 0
56 -5 -7 0
-57 55 0
-57 56 0
57 -55 -56 0
-58 -56 -55 0
-58 56 55 0
58 -56 55 0
58 56 -55 0
-59 3 0
-59 7 0
59 -3 -7 0
-60 5 0
-60 8 0
60 -5 -8 0
-61 59 0
-61 60 0
61 -59 -60 0
-62 -60 -59 0
-62 60 59 0
62 -60 59 0
62 60 -59 0
-63 3 0
-63 8 0
63 -3 -8 0
-64 5 0
-64 9 0
64 -5 -9 0
-65 63 0
-65 64 0
65 -63 -64 0
-66 -64 -63 0
-66 64 63 0
66 -64 63 0
66 64 -63 0
-67 3 0
-67 9 0
67 -3 -9 0
-68 5 0
-68 10 0
68 -5 -10 0
-69 67 0
-69 68 0
69 -67 -68 0
-70 -68 -67 0
-70 68 67 0
70 -68 67 0
70 68 -67 0
-71 3 0
-71 10 0
71 -3 -10 0
-72 5 0
-72 11 0
72 -5 -11 0
-73 71 0
-73 72 0
73 -71 -72 0
-74 70 0
-74 73 0
74 -70 -73 0
-75 -69 0
-75 -74 0
75 69 74 0
-76 66 0
-76 -75 0
76 -66 75 0
-77 -65 0
-77 -76 0
77 65 76 0
-78 62 0
-78 -77 0
78 -62 77 0
-79 -61 0
-79 -78 0
79 61 78 0
-80 58 0
-80 -79 0
80 -58 79 0
-81 -57 0
-81 -80 0
81 57 80 0
-82 54 0
-82 -81 0
82 -54 81 0
-83 -53 0
-83 -82 0
83 53 82 0
-84 83 -50 0
-84 -83 50 0
84 83 50 0
84 -83 -50 0
-85 6 0
-85 12 0
85 -6 -12 0
-86 -85 -84 0
-86 85 84 0
86 -85 84 0
86 85 -84 0
-87 81 -54 0
-87 -81 54 0
87 81 54 0
87 -81 -54 0
-88 7 0
-88 12 0
88 -7 -12 0
-89 87 0
-89 88 0
89 -87 -88 0
-90 -88 -87 0
-90 88 87 0
90 -88 87 0
90 88 -87 0
-91 79 -58 0
-91 -79 58 0
91 79 58 0
91 -79 -58 0
-92 8 0
-92 12 0
92 -8 -12 0
-93 91 0
-93 92 0
93 -91 -92 0
-94 -92 -91 0
-94 92 91 0
94 -92 91 0
94 92 -91 0
-95 77 -62 0
-95 -77 62 0
95 77 62 0
95 -77 -62 0
-96 9 0
-96 12 0
96 -9 -12 0
-97 95 0
-97 96 0
97 -95 -96 0
-98 -96 -95 0
-98 96 95 0
98 -96 95 0
98 96 -95 0
-99 75 -66 0
-99 -75 66 0
99 75 66 0
99 -75 -66 0
-100 10 0
-100 12 0
100 -10 -12 0
-101 99 0
-101 100 0
101 -99 -100 0
-102 -100 -99 0
-102 100 99 0
102 -100 99 0
102 100 -99 0
-103 -73 -70 0
-103 73 70 0
103 -73 70 0
103 73 -70 0
-104 11 0
-104 12 0
104 -11 -12 0
-105 103 0
-105 104 0
105 -103 -104 0
-106 102 0
-106 105 0
106 -102 -105 0
-107 -101 0
-107 -106 0
107 101 106 0
-108 98 0
-108 -107 0
108 -98 107 0
-109 -97 0
-109 -108 0
109 97 108 0
-110 94 0
-110 -109 0
110 -94 109 0
-111 -93 0
-111 -110 0
111 93 110 0
-112 90 0
-112 -111 0
112 -90 111 0
-113 -89 0
-113 -112 0
113 89 112 0
-114 113 -86 0
-114 -113 86 0
114 113 86 0
114 -113 -86 0
-115 7 0
-115 13 0
115 -7 -13 0
-116 -115 -114 0
-116 115 114 0
116 -115 114 0
116 115 -114 0
-117 111 -90 0
-117 -111 90 0
117 111 90 0
117 -111 -90 0
-118 8 0
-118 13 0
118 -8 -13 0
-119 117 0
-119 118 0
119 -117 -118 0
-120 -118 -117 0
-120 118 117 0
120 -118 117 0
120 118 -117 0
-121 109 -94 0
-121 -109 94 0
121 109 94 0
121 -109 -94 0
-122 9 0
-122 13 0
122 -9 -13 0
-123 121 0
-123 122 0
123 -121 -122 0
-124 -122 -121 0
-124 122 121 0
124 -122 121 0
124 122 -121 0
-125 107 -98 0
-125 -107 98 0
125 107 98 0
125 -107 -98 0
-126 10 0
-126 13 0
126 -10 -13 0
-127 125 0
-127 126 0
127 -125 -126 0
-128 -126 -125 0
-128 126 125 0
128 -126 125 0
128 126 -125 0
-129 -105 -102 0
-129 105 102 0
129 -105 102 0
129 105 -102 0
-130 11 0
-130 13 0
130 -11 -13 0
-131 129 0
-131 130 0
131 -129 -130 0
-132 128 0
-132 131 0
132 -128 -131 0
-133 -127 0
-133 -132 0
133 127 132 0
-134 124 0
-134 -133 0
134 -124 133 0
-135 -123 0
-135 -134 0
135 123 134 0
-136 120 0
-136 -135 0
136 -120 135 0
-137 -119 0
-137 -136 0
137 119 136 0
-138 137 -116 0
-138 -137 116 0
138 137 116 0
138 -137 -116 0
-139 8 0
-139 14 0
139 -8 -14 0
-140 -139 -138 0
-140 139 138 0
140 -139 138 0
140 139 -138 0
-141 135 -120 0
-141 -135 120 0
141 135 120 0
141 -135 -120 0
-142 9 0
-142 14 0
142 -9 -14 0
-143 141 0
-143 142 0
143 -141 -142 0
-144 -142 -141 0
-144 142 141 0
144 -142 141 0
144 142 -141 0
-145 133 -124 0
-145 -133 124 0
145 133 124 0
145 -133 -124 0
-146 10 0
-146 14 0
146 -10 -14 0
-147 145 0
-147 146 0
147 -145 -146 0
-148 -146 -145 0
-148 146 145 0
148 -146 145 0
148 146 -145 0
-149 -131 -128 0
-149 131 128 0
149 -131 128 0
149 131 -128 0
-150 11 0
-150 14 0
150 -11 -14 0
-151 149 0
-151 150 0
151 -149 -150 0
-152 148 0
-152 151 0
152 -148 -151 0
-153 -147 0
-153 -152 0
153 147 152 0
-154 144 0
-154 -153 0
154 -144 153 0
-155 -143 0
-155 -154 0
155 143 154 0
-156 155 -140 0
-156 -155 140 0
156 155 140 0
156 -155 -140 0
-157 9 0
-157 15 0
157 -9 -15 0
-158 -157 -156 0
-158 157 156 0
158 -157 156 0
158 157 -156 0
-159 153 -144 0
-159 -153 144 0
159 153 144 0
159 -153 -144 0
-160 10 0
-160 15 0
160 -10 -15 0
-161 159 0
-161 160 0
161 -159 -160 0
-162 -160 -159 0
-162 160 159 0
162 -160 159 0
162 160 -159 0
-163 -151 -148 0
-163 151 148 0
163 -151 148 0
163 151 -148 0
-164 11 0
-164 15 0
164 -11 -15 0
-165 163 0
-165 164 0
165 -163 -164 0
-166 162 0
-166 165 0
166 -162 -165 0
-167 -161 0
-167 -166 0
167 161 166 0
-168 167 -158 0
-168 -167 158 0
168 167 158 0
168 -167 -158 0
-169 10 0
-169 16 0
169 -10 -16 0
-170 -169 -168 0
-170 169 168 0
170 -169 168 0
170 169 -168 0
-171 -165 -162 0
-171 165 162 0
171 -165 162 0
171 165 -162 0
-172 11 0
-172 16 0
172 -11 -16 0
-173 171 0
-173 172 0
173 -171 -172 0
-174 -173 -170 0
-174 173 170 0
174 -173 170 0
174 173 -170 0
-175 11 0
-175 17 0
175 -11 -17 0
-176 -175 -174 0
-176 175 174 0
176 -175 174 0
176 175 -174 0
-177 176 -1 0
-177 -176 1 0
-178 -172 -171 0
-178 172 171 0
178 -172 171 0
178 172 -171 0
-179 178 -18 0
-179 -178 18 0
-180 177 0
-180 179 0
-181 -164 -163 0
-181 164 163 0
181 -164 163 0
181 164 -163 0
-182 181 -19 0
-182 -181 19 0
-183 180 0
-183 182 0
-184 -150 -149 0
-184 150 149 0
184 -150 149 0
184 150 -149 0
-185 184 -20 0
-185 -184 20 0
-186 183 0
-186 185 0
-187 -130 -129 0
-187 130 129 0
187 -130 129 0
187 130 -129 0
-188 187 -21 0
-188 -187 21 0
-189 186 0
-189 188 0
-190 -104 -103 0
-190 104 103 0
190 -104 103 0
190 104 -103 0
-191 190 -22 0
-191 -190 22 0
-192 189 0
-192 191 0
-193 -72 -71 0
-193 72 71 0
193 -72 71 0
193 72 -71 0
-194 193 -23 0
-194 -193 23 0
-195 192 0
-195 194 0
-196 3 0
-196 11 0
196 -3 -11 0
-197 196 -24 0
-197 -196 24 0
-198 195 0
-198 197 0
-199 11 0
-199 17 0
199 -11 -17 0
-200 10 0
-200 16 0
200 -10 -16 0
-201 -200 -199 0
-201 200 199 0
201 -200 199 0
201 200 -199 0
-202 11 0
-202 16 0
202 -11 -16 0
-203 10 0
-203 15 0
203 -10 -15 0
-204 202 0
-204 203 0
204 -202 -203 0
-205 -203 -202 0
-205 203 202 0
205 -203 202 0
205 203 -202 0
-206 11 0
-206 15 0
206 -11 -15 0
-207 10 0
-207 14 0
207 -10 -14 0
-208 206 0
-208 207 0
208 -206 -207 0
-209 -207 -206 0
-209 207 206 0
209 -207 206 0
209 207 -206 0
-210 11 0
-210 14 0
210 -11 -14 0
-211 10 0
-211 13 0
211 -10 -13 0
-212 210 0
-212 211 0
212 -210 -211 0
-213 -211 -210 0
-213 211 210 0
213 -211 210 0
213 211 -210 0
-214 11 0
-214 13 0
214 -11 -13 0
-215 10 0
-215 12 0
215 -10 -12 0
-216 214 0
-216 215 0
216 -214 -215 0
-217 -215 -214 0
-217 215 214 0
217 -215 214 0
217 215 -214 0
-218 11 0
-218 12 0
218 -11 -12 0
-219 5 0
-219 10 0
219 -5 -10 0
-220 218 0
-220 219 0
220 -218 -219 0
-221 -219 -218 0
-221 219 218 0
221 -219 218 0
221 219 -218 0
-222 5 0
-222 11 0
222 -5 -11 0
-223 3 0
-223 10 0
223 -3 -10 0
-224 222 0
-224 223 0
224 -222 -223 0
-225 221 0
-225 224 0
225 -221 -224 0
-226 -220 0
-226 -225 0
226 220 225 0
-227 217 0
-227 -226 0
227 -217 226 0
-228 -216 0
-228 -227 0
228 216 227 0
-229 213 0
-229 -228 0
229 -213 228 0
-230 -212 0
-230 -229 0
230 212 229 0
-231 209 0
-231 -230 0
231 -209 230 0
-232 -208 0
-232 -231 0
232 208 231 0
-233 205 0
-233 -232 0
233 -205 232 0
-234 -204 0
-234 -233 0
234 204 233 0
-235 234 -201 0
-235 -234 201 0
235 234 201 0
235 -234 -201 0
-236 9 0
-236 15 0
236 -9 -15 0
-237 -236 -235 0
-237 236 235 0
237 -236 235 0
237 236 -235 0
-238 232 -205 0
-238 -232 205 0
238 232 205 0
238 -232 -205 0
-239 9 0
-239 14 0
239 -9 -14 0
-240 238 0
-240 239 0
240 -238 -239 0
-241 -239 -238 0
-241 239 238 0
241 -239 238 0
241 239 -238 0
-242 230 -209 0
-242 -230 209 0
242 230 209 0
242 -230 -209 0
-243 9 0
-243 13 0
243 -9 -13 0
-244 242 0
-244 243 0
244 -242 -243 0
-245 -243 -242 0
-245 243 242 0
245 -243 242 0
245 243 -242 0
-246 228 -213 0
-246 -228 213 0
246 228 213 0
246 -228 -213 0
-247 9 0
-247 12 0
247 -9 -12 0
-248 246 0
-248 247 0
248 -246 -247 0
-249 -247 -246 0
-249 247 246 0
249 -247 246 0
249 247 -246 0
-250 226 -217 0
-250 -226 217 0
250 226 217 0
250 -226 -217 0
-251 5 0
-251 9 0
251 -5 -9 0
-252 250 0
-252 251 0
252 -250 -251 0
-253 -251 -250 0
-253 251 250 0
253 -251 250 0
253 251 -250 0
-254 -224 -221 0
-254 224 221 0
254 -224 221 0
254 224 -221 0
-255 3 0
-255 9 0
255 -3 -9 0
-256 254 0
-256 255 0
256 -254 -255 0
-257 253 0
-257 256 0
257 -253 -256 0
-258 -252 0
-258 -257 0
258 252 257 0
-259 249 0
-259 -258 0
259 -249 258 0
-260 -248 0
-260 -259 0
260 248 259 0
-261 245 0
-261 -260 0
261 -245 260 0
-262 -244 0
-262 -261 0
262 244 261 0
-263 241 0
-263 -262 0
263 -241 262 0
-264 -240 0
-264 -263 0
264 240 263 0
-265 264 -237 0
-265 -264 237 0
265 264 237 0
265 -264 -237 0
-266 8 0
-266 14 0
266 -8 -14 0
-267 -266 -265 0
-267 266 265 0
267 -266 265 0
267 266 -265 0
-268 262 -241 0
-268 -262 241 0
268 262 241 0
268 -262 -241 0
-269 8 0
-269 13 0
269 -8 -13 0
-270 268 0
-270 269 0
270 -268 -269 0
-271 -269 -268 0
-271 269 268 0
271 -269 268 0
271 269 -268 0
-272 260 -245 0
-272 -260 245 0
272 260 245 0
272 -260 -245 0
-273 8 0
-273 12 0
273 -8 -12 0
-274 272 0
-274 273 0
274 -272 -273 0
-275 -273 -272 0
-275 273 272 0
275 -273 272 0
275 273 -272 0
-276 258 -249 0
-276 -258 249 0
276 258 249 0
276 -258 -249 0
-277 5 0
-277 8 0
277 -5 -8 0
-278 276 0
-278 277 0
278 -276 -277 0
-279 -277 -276 0
-279 277 276 0
279 -277 276 0
279 277 -276 0
-280 -256 -253 0
-280 256 253 0
280 -256 253 0
280 256 -253 0
-281 3 0
-281 8 0
281 -3 -8 0
-282 280 0
-282 281 0
282 -280 -281 0
-283 279 0
-283 282 0
283 -279 -282 0
-284 -278 0
-284 -283 0
284 278 283 0
-285 275 0
-285 -284 0
285 -275 284 0
-286 -274 0
-286 -285 0
286 274 285 0
-287 271 0
-287 -286 0
287 -271 286 0
-288 -270 0
-288 -287 0
288 270 287 0
-289 288 -267 0
-289 -288 267 0
289 288 267 0
289 -288 -267 0
-290 7 0
-290 13 0
290 -7 -13 0
-291 -290 -289 0
-291 290 289 0
291 -290 289 0
291 290 -289 0
-292 286 -271 0
-292 -286 271 0
292 286 271 0
292 -286 -271 0
-293 7 0
-293 12 0
293 -7 -12 0
-294 292 0
-294 293 0
294 -292 -293 0
-295 -293 -292 0
-295 293 292 0
295 -293 292 0
295 293 -292 0
-296 284 -275 0
-296 -284 275 0
296 284 275 0
296 -284 -275 0
-297 5 0
-297 7 0
297 -5 -7 0
-298 296 0
-298 297 0
298 -296 -297 0
-299 -297 -296 0
-299 297 296 0
299 -297 296 0
299 297 -296 0
-300 -282 -279 0
-300 282 279 0
300 -282 279 0
300 282 -279 0
-301 3 0
-301 7 0
301 -3 -7 0
-302 300 0
-302 301 0
302 -300 -301 0
-303 299 0
-303 302 0
303 -299 -302 0
-304 -298 0
-304 -303 0
304 298 303 0
-305 295 0
-305 -304 0
305 -295 304 0
-306 -294 0
-306 -305 0
306 294 305 0
-307 306 -291 0
-307 -306 291 0
307 306 291 0
307 -306 -291 0
-308 6 0
-308 12 0
308 -6 -12 0
-309 -308 -307 0
-309 308 307 0
309 -308 307 0
309 308 -307 0
-310 304 -295 0
-310 -304 295 0
310 304 295 0
310 -304 -295 0
-311 5 0
-311 6 0
311 -5 -6 0
-312 310 0
-312 311 0
312 -310 -311 0
-313 -311 -310 0
-313 311 310 0
313 -311 310 0
313 311 -310 0
-314 -302 -299 0
-314 302 299 0
314 -302 299 0
314 302 -299 0
-315 3 0
-315 6 0
315 -3 -6 0
-316 314 0
-316 315 0
316 -314 -315 0
-317 313 0
-317 316 0
317 -313 -316 0
-318 -312 0
-318 -317 0
318 312 317 0
-319 318 -309 0
-319 -318 309 0
319 318 309 0
319 -318 -309 0
-320 4 0
-320 5 0
320 -4 -5 0
-321 -320 -319 0
-321 320 319 0
321 -320 319 0
321 320 -319 0
-322 -316 -313 0
-322 316 313 0
322 -316 313 0
322 316 -313 0
-323 3 0
-323 4 0
323 -3 -4 0
-324 322 0
-324 323 0
324 -322 -323 0
-325 -324 -321 0
-325 324 321 0
325 -324 321 0
325 324 -321 0
-326 2 0
-326 3 0
326 -2 -3 0
-327 -326 -325 0
-327 326 325 0
327 -326 325 0
327 326 -325 0
-328 327 -25 0
-328 -327 25 0
-329 -323 -322 0
-329 323 322 0
329 -323 322 0
329 323 -322 0
-330 329 -26 0
-330 -329 26 0
-331 328 0
-331 330 0
-332 -315 -314 0
-332 315 314 0
332 -315 314 0
332 315 -314 0
-333 332 -27 0
-333 -332 27 0
-334 331 0
-334 333 0
-335 -301 -300 0
-335 301 300 0
335 -301 300 0
335 301 -300 0
-336 335 -28 0
-336 -335 28 0
-337 334 0
-337 336 0
-338 -281 -280 0
-338 281 280 0
338 -281 280 0
338 281 -280 0
-339 338 -29 0
-339 -338 29 0
-340 337 0
-340 339 0
-341 -255 -254 0
-341 255 254 0
341 -255 254 0
341 255 -254 0
-342 341 -30 0
-342 -341 30 0
-343 340 0
-343 342 0
-344 -223 -222 0
-344 223 222 0
344 -223 222 0
344 223 -222 0
-345 344 -31 0
-345 -344 31 0
-346 343 0
-346 345 0
-347 3 0
-347 11 0
347 -3 -11 0
-348 347 -32 0
-348 -347 32 0
-349 346 0
-349 348 0
-350 198 0
-350 349 0
-351 -47 0
-351 350 0
351 0
