p cnf 781 2461
-28 22 0
-28 23 0
28 -22 -23 0
-29 1 0
-29 28 0
29 -1 -28 0
-30 23 0
-30 24 0
30 -23 -24 0
-31 22 0
-31 25 0
31 -22 -25 0
-32 30 0
-32 31 0
32 -30 -31 0
-33 -31 -30 0
-33 31 30 0
33 -31 30 0
33 31 -30 0
-34 2 0
-34 33 0
34 -2 -33 0
-35 -34 -29 0
-35 34 29 0
35 -34 29 0
35 34 -29 0
-36 2 0
-36 28 0
36 -2 -28 0
-37 3 0
-37 33 0
37 -3 -33 0
-38 36 0
-38 37 0
38 -36 -37 0
-39 -37 -36 0
-39 37 36 0
39 -37 36 0
39 37 -36 0
-40 3 0
-40 28 0
40 -3 -28 0
-41 4 0
-41 33 0
41 -4 -33 0
-42 40 0
-42 41 0
42 -40 -41 0
-43 -41 -40 0
-43 41 40 0
43 -41 40 0
43 41 -40 0
-44 4 0
-44 28 0
44 -4 -28 0
-45 5 0
-45 33 0
45 -5 -33 0
-46 44 0
-46 45 0
46 -44 -45 0
-47 -45 -44 0
-47 45 44 0
47 -45 44 0
47 45 -44 0
-48 5 0
-48 28 0
48 -5 -28 0
-49 6 0
-49 33 0
49 -6 -33 0
-50 48 0
-50 49 0
50 -48 -49 0
-51 -49 -48 0
-51 49 48 0
51 -49 48 0
51 49 -48 0
-52 6 0
-52 28 0
52 -6 -28 0
-53 7 0
-53 33 0
53 -7 -33 0
-54 52 0
-54 53 0
54 -52 -53 0
-55 -53 -52 0
-55 53 52 0
55 -53 52 0
55 53 -52 0
-56 7 0
-56 28 0
56 -7 -28 0
-57 26 0
-57 33 0
57 -26 -33 0
-58 56 0
-58 57 0
58 -56 -57 0
-59 -57 -56 0
-59 57 56 0
59 -57 56 0
59 57 -56 0
-60 26 0
-60 28 0
60 -26 -28 0
-61 27 0
-61 33 0
61 -27 -33 0
-62 60 0
-62 61 0
62 -60 -61 0
-63 59 0
-63 62 0
63 -59 -62 0
-64 -58 0
-64 -63 0
64 58 63 0
-65 55 0
-65 -64 0
65 -55 64 0
-66 -54 0
-66 -65 0
66 54 65 0
-67 51 0
-67 -66 0
67 -51 66 0
-68 -50 0
-68 -67 0
68 50 67 0
-69 47 0
-69 -68 0
69 -47 68 0
-70 -46 0
-70 -69 0
70 46 69 0
-71 43 0
-71 -70 0
71 -43 70 0
-72 -42 0
-72 -71 0
72 42 71 0
-73 39 0
-73 -72 0
73 -39 72 0
-74 -38 0
-74 -73 0
74 38 73 0
-75 74 -35 0
-75 -74 35 0
75 74 35 0
75 -74 -35 0
-76 14 0
-76 23 0
76 -14 -23 0
-77 24 0
-77 25 0
77 -24 -25 0
-78 76 0
-78 77 0
78 -76 -77 0
-79 -77 -76 0
-79 77 76 0
79 -77 76 0
79 77 -76 0
-80 32 0
-80 79 0
80 -32 -79 0
-81 -79 -32 0
-81 79 32 0
81 -79 32 0
81 79 -32 0
-82 21 0
-82 22 0
82 -21 -22 0
-83 81 0
-83 82 0
83 -81 -82 0
-84 -82 -81 0
-84 82 81 0
84 -82 81 0
84 82 -81 0
-85 3 0
-85 84 0
85 -3 -84 0
-86 -85 -75 0
-86 85 75 0
86 -85 75 0
86 85 -75 0
-87 72 -39 0
-87 -72 39 0
87 72 39 0
87 -72 -39 0
-88 4 0
-88 84 0
88 -4 -84 0
-89 87 0
-89 88 0
89 -87 -88 0
-90 -88 -87 0
-90 88 87 0
90 -88 87 0
90 88 -87 0
-91 70 -43 0
-91 -70 43 0
91 70 43 0
91 -70 -43 0
-92 5 0
-92 84 0
92 -5 -84 0
-93 91 0
-93 92 0
93 -91 -92 0
-94 -92 -91 0
-94 92 91 0
94 -92 91 0
94 92 -91 0
-95 68 -47 0
-95 -68 47 0
95 68 47 0
95 -68 -47 0
-96 6 0
-96 84 0
96 -6 -84 0
-97 95 0
-97 96 0
97 -95 -96 0
-98 -96 -95 0
-98 96 95 0
98 -96 95 0
98 96 -95 0
-99 66 -51 0
-99 -66 51 0
99 66 51 0
99 -66 -51 0
-100 7 0
-100 84 0
100 -7 -84 0
-101 99 0
-101 100 0
101 -99 -100 0
-102 -100 -99 0
-102 100 99 0
102 -100 99 0
102 100 -99 0
-103 64 -55 0
-103 -64 55 0
103 64 55 0
103 -64 -55 0
-104 26 0
-104 84 0
104 -26 -84 0
-105 103 0
-105 104 0
105 -103 -104 0
-106 -104 -103 0
-106 104 103 0
106 -104 103 0
106 104 -103 0
-107 -62 -59 0
-107 62 59 0
107 -62 59 0
107 62 -59 0
-108 27 0
-108 84 0
108 -27 -84 0
-109 107 0
-109 108 0
109 -107 -108 0
-110 106 0
-110 109 0
110 -106 -109 0
-111 -105 0
-111 -110 0
111 105 110 0
-112 102 0
-112 -111 0
112 -102 111 0
-113 -101 0
-113 -112 0
113 101 112 0
-114 98 0
-114 -113 0
114 -98 113 0
-115 -97 0
-115 -114 0
115 97 114 0
-116 94 0
-116 -115 0
116 -94 115 0
-117 -93 0
-117 -116 0
117 93 116 0
-118 90 0
-118 -117 0
118 -90 117 0
-119 -89 0
-119 -118 0
119 89 118 0
-120 119 -86 0
-120 -119 86 0
120 119 86 0
120 -119 -86 0
-121 13 0
-121 23 0
121 -13 -23 0
-122 14 0
-122 25 0
122 -14 -25 0
-123 121 0
-123 122 0
123 -121 -122 0
-124 -122 -121 0
-124 122 121 0
124 -122 121 0
124 122 -121 0
-125 -78 0
-125 -80 0
125 78 80 0
-126 124 0
-126 -125 0
126 -124 125 0
-127 125 -124 0
-127 -125 124 0
127 125 124 0
127 -125 -124 0
-128 21 0
-128 24 0
128 -21 -24 0
-129 127 0
-129 128 0
129 -127 -128 0
-130 -128 -127 0
-130 128 127 0
130 -128 127 0
130 128 -127 0
-131 83 0
-131 130 0
131 -83 -130 0
-132 -130 -83 0
-132 130 83 0
132 -130 83 0
132 130 -83 0
-133 20 0
-133 22 0
133 -20 -22 0
-134 132 0
-134 133 0
134 -132 -133 0
-135 -133 -132 0
-135 133 132 0
135 -133 132 0
135 133 -132 0
-136 4 0
-136 135 0
136 -4 -135 0
-137 -136 -120 0
-137 136 120 0
137 -136 120 0
137 136 -120 0
-138 117 -90 0
-138 -117 90 0
138 117 90 0
138 -117 -90 0
-139 5 0
-139 135 0
139 -5 -135 0
-140 138 0
-140 139 0
140 -138 -139 0
-141 -139 -138 0
-141 139 138 0
141 -139 138 0
141 139 -138 0
-142 115 -94 0
-142 -115 94 0
142 115 94 0
142 -115 -94 0
-143 6 0
-143 135 0
143 -6 -135 0
-144 142 0
-144 143 0
144 -142 -143 0
-145 -143 -142 0
-145 143 142 0
145 -143 142 0
145 143 -142 0
-146 113 -98 0
-146 -113 98 0
146 113 98 0
146 -113 -98 0
-147 7 0
-147 135 0
147 -7 -135 0
-148 146 0
-148 147 0
148 -146 -147 0
-149 -147 -146 0
-149 147 146 0
149 -147 146 0
149 147 -146 0
-150 111 -102 0
-150 -111 102 0
150 111 102 0
150 -111 -102 0
-151 26 0
-151 135 0
151 -26 -135 0
-152 150 0
-152 151 0
152 -150 -151 0
-153 -151 -150 0
-153 151 150 0
153 -151 150 0
153 151 -150 0
-154 -109 -106 0
-154 109 106 0
154 -109 106 0
154 109 -106 0
-155 27 0
-155 135 0
155 -27 -135 0
-156 154 0
-156 155 0
156 -154 -155 0
-157 153 0
-157 156 0
157 -153 -156 0
-158 -152 0
-158 -157 0
158 152 157 0
-159 149 0
-159 -158 0
159 -149 158 0
-160 -148 0
-160 -159 0
160 148 159 0
-161 145 0
-161 -160 0
161 -145 160 0
-162 -144 0
-162 -161 0
162 144 161 0
-163 141 0
-163 -162 0
163 -141 162 0
-164 -140 0
-164 -163 0
164 140 163 0
-165 164 -137 0
-165 -164 137 0
165 164 137 0
165 -164 -137 0
-166 12 0
-166 23 0
166 -12 -23 0
-167 13 0
-167 25 0
167 -13 -25 0
-168 166 0
-168 167 0
168 -166 -167 0
-169 -167 -166 0
-169 167 166 0
169 -167 166 0
169 167 -166 0
-170 -123 0
-170 -126 0
170 123 126 0
-171 169 0
-171 -170 0
171 -169 170 0
-172 170 -169 0
-172 -170 169 0
172 170 169 0
172 -170 -169 0
-173 14 0
-173 21 0
173 -14 -21 0
-174 172 0
-174 173 0
174 -172 -173 0
-175 -173 -172 0
-175 173 172 0
175 -173 172 0
175 173 -172 0
-176 -129 0
-176 -131 0
176 129 131 0
-177 175 0
-177 -176 0
177 -175 176 0
-178 176 -175 0
-178 -176 175 0
178 176 175 0
178 -176 -175 0
-179 20 0
-179 24 0
179 -20 -24 0
-180 178 0
-180 179 0
180 -178 -179 0
-181 -179 -178 0
-181 179 178 0
181 -179 178 0
181 179 -178 0
-182 134 0
-182 181 0
182 -134 -181 0
-183 -181 -134 0
-183 181 134 0
183 -181 134 0
183 181 -134 0
-184 19 0
-184 22 0
184 -19 -22 0
-185 183 0
-185 184 0
185 -183 -184 0
-186 -184 -183 0
-186 184 183 0
186 -184 183 0
186 184 -183 0
-187 5 0
-187 186 0
187 -5 -186 0
-188 -187 -165 0
-188 187 165 0
188 -187 165 0
188 187 -165 0
-189 162 -141 0
-189 -162 141 0
189 162 141 0
189 -162 -141 0
-190 6 0
-190 186 0
190 -6 -186 0
-191 189 0
-191 190 0
191 -189 -190 0
-192 -190 -189 0
-192 190 189 0
192 -190 189 0
192 190 -189 0
-193 160 -145 0
-193 -160 145 0
193 160 145 0
193 -160 -145 0
-194 7 0
-194 186 0
194 -7 -186 0
-195 193 0
-195 194 0
195 -193 -194 0
-196 -194 -193 0
-196 194 193 0
196 -194 193 0
196 194 -193 0
-197 158 -149 0
-197 -158 149 0
197 158 149 0
197 -158 -149 0
-198 26 0
-198 186 0
198 -26 -186 0
-199 197 0
-199 198 0
199 -197 -198 0
-200 -198 -197 0
-200 198 197 0
200 -198 197 0
200 198 -197 0
-201 -156 -153 0
-201 156 153 0
201 -156 153 0
201 156 -153 0
-202 27 0
-202 186 0
202 -27 -186 0
-203 201 0
-203 202 0
203 -201 -202 0
-204 200 0
-204 203 0
204 -200 -203 0
-205 -199 0
-205 -204 0
205 199 204 0
-206 196 0
-206 -205 0
206 -196 205 0
-207 -195 0
-207 -206 0
207 195 206 0
-208 192 0
-208 -207 0
208 -192 207 0
-209 -191 0
-209 -208 0
209 191 208 0
-210 209 -188 0
-210 -209 188 0
210 209 188 0
210 -209 -188 0
-211 11 0
-211 23 0
211 -11 -23 0
-212 12 0
-212 25 0
212 -12 -25 0
-213 211 0
-213 212 0
213 -211 -212 0
-214 -212 -211 0
-214 212 211 0
214 -212 211 0
214 212 -211 0
-215 -168 0
-215 -171 0
215 168 171 0
-216 214 0
-216 -215 0
216 -214 215 0
-217 215 -214 0
-217 -215 214 0
217 215 214 0
217 -215 -214 0
-218 13 0
-218 21 0
218 -13 -21 0
-219 217 0
-219 218 0
219 -217 -218 0
-220 -218 -217 0
-220 218 217 0
220 -218 217 0
220 218 -217 0
-221 -174 0
-221 -177 0
221 174 177 0
-222 220 0
-222 -221 0
222 -220 221 0
-223 221 -220 0
-223 -221 220 0
223 221 220 0
223 -221 -220 0
-224 14 0
-224 20 0
224 -14 -20 0
-225 223 0
-225 224 0
225 -223 -224 0
-226 -224 -223 0
-226 224 223 0
226 -224 223 0
226 224 -223 0
-227 -180 0
-227 -182 0
227 180 182 0
-228 226 0
-228 -227 0
228 -226 227 0
-229 227 -226 0
-229 -227 226 0
229 227 226 0
229 -227 -226 0
-230 19 0
-230 24 0
230 -19 -24 0
-231 229 0
-231 230 0
231 -229 -230 0
-232 -230 -229 0
-232 230 229 0
232 -230 229 0
232 230 -229 0
-233 185 0
-233 232 0
233 -185 -232 0
-234 -232 -185 0
-234 232 185 0
234 -232 185 0
234 232 -185 0
-235 18 0
-235 22 0
235 -18 -22 0
-236 234 0
-236 235 0
236 -234 -235 0
-237 -235 -234 0
-237 235 234 0
237 -235 234 0
237 235 -234 0
-238 6 0
-238 237 0
238 -6 -237 0
-239 -238 -210 0
-239 238 210 0
239 -238 210 0
239 238 -210 0
-240 207 -192 0
-240 -207 192 0
240 207 192 0
240 -207 -192 0
-241 7 0
-241 237 0
241 -7 -237 0
-242 240 0
-242 241 0
242 -240 -241 0
-243 -241 -240 0
-243 241 240 0
243 -241 240 0
243 241 -240 0
-244 205 -196 0
-244 -205 196 0
244 205 196 0
244 -205 -196 0
-245 26 0
-245 237 0
245 -26 -237 0
-246 244 0
-246 245 0
246 -244 -245 0
-247 -245 -244 0
-247 245 244 0
247 -245 244 0
247 245 -244 0
-248 -203 -200 0
-248 203 200 0
248 -203 200 0
248 203 -200 0
-249 27 0
-249 237 0
249 -27 -237 0
-250 248 0
-250 249 0
250 -248 -249 0
-251 247 0
-251 250 0
251 -247 -250 0
-252 -246 0
-252 -251 0
252 246 251 0
-253 243 0
-253 -252 0
253 -243 252 0
-254 -242 0
-254 -253 0
254 242 253 0
-255 254 -239 0
-255 -254 239 0
255 254 239 0
255 -254 -239 0
-256 10 0
-256 23 0
256 -10 -23 0
-257 11 0
-257 25 0
257 -11 -25 0
-258 256 0
-258 257 0
258 -256 -257 0
-259 -257 -256 0
-259 257 256 0
259 -257 256 0
259 257 -256 0
-260 -213 0
-260 -216 0
260 213 216 0
-261 259 0
-261 -260 0
261 -259 260 0
-262 260 -259 0
-262 -260 259 0
262 260 259 0
262 -260 -259 0
-263 12 0
-263 21 0
263 -12 -21 0
-264 262 0
-264 263 0
264 -262 -263 0
-265 -263 -262 0
-265 263 262 0
265 -263 262 0
265 263 -262 0
-266 -219 0
-266 -222 0
266 219 222 0
-267 265 0
-267 -266 0
267 -265 266 0
-268 266 -265 0
-268 -266 265 0
268 266 265 0
268 -266 -265 0
-269 13 0
-269 20 0
269 -13 -20 0
-270 268 0
-270 269 0
270 -268 -269 0
-271 -269 -268 0
-271 269 268 0
271 -269 268 0
271 269 -268 0
-272 -225 0
-272 -228 0
272 225 228 0
-273 271 0
-273 -272 0
273 -271 272 0
-274 272 -271 0
-274 -272 271 0
274 272 271 0
274 -272 -271 0
-275 14 0
-275 19 0
275 -14 -19 0
-276 274 0
-276 275 0
276 -274 -275 0
-277 -275 -274 0
-277 275 274 0
277 -275 274 0
277 275 -274 0
-278 -231 0
-278 -233 0
278 231 233 0
-279 277 0
-279 -278 0
279 -277 278 0
-280 278 -277 0
-280 -278 277 0
280 278 277 0
280 -278 -277 0
-281 18 0
-281 24 0
281 -18 -24 0
-282 280 0
-282 281 0
282 -280 -281 0
-283 -281 -280 0
-283 281 280 0
283 -281 280 0
283 281 -280 0
-284 236 0
-284 283 0
284 -236 -283 0
-285 -283 -236 0
-285 283 236 0
285 -283 236 0
285 283 -236 0
-286 17 0
-286 22 0
286 -17 -22 0
-287 285 0
-287 286 0
287 -285 -286 0
-288 -286 -285 0
-288 286 285 0
288 -286 285 0
288 286 -285 0
-289 7 0
-289 288 0
289 -7 -288 0
-290 -289 -255 0
-290 289 255 0
290 -289 255 0
290 289 -255 0
-291 252 -243 0
-291 -252 243 0
291 252 243 0
291 -252 -243 0
-292 26 0
-292 288 0
292 -26 -288 0
-293 291 0
-293 292 0
293 -291 -292 0
-294 -292 -291 0
-294 292 291 0
294 -292 291 0
294 292 -291 0
-295 -250 -247 0
-295 250 247 0
295 -250 247 0
295 250 -247 0
-296 27 0
-296 288 0
296 -27 -288 0
-297 295 0
-297 296 0
297 -295 -296 0
-298 294 0
-298 297 0
298 -294 -297 0
-299 -293 0
-299 -298 0
299 293 298 0
-300 299 -290 0
-300 -299 290 0
300 299 290 0
300 -299 -290 0
-301 9 0
-301 23 0
301 -9 -23 0
-302 10 0
-302 25 0
302 -10 -25 0
-303 301 0
-303 302 0
303 -301 -302 0
-304 -302 -301 0
-304 302 301 0
304 -302 301 0
304 302 -301 0
-305 -258 0
-305 -261 0
305 258 261 0
-306 304 0
-306 -305 0
306 -304 305 0
-307 305 -304 0
-307 -305 304 0
307 305 304 0
307 -305 -304 0
-308 11 0
-308 21 0
308 -11 -21 0
-309 307 0
-309 308 0
309 -307 -308 0
-310 -308 -307 0
-310 308 307 0
310 -308 307 0
310 308 -307 0
-311 -264 0
-311 -267 0
311 264 267 0
-312 310 0
-312 -311 0
312 -310 311 0
-313 311 -310 0
-313 -311 310 0
313 311 310 0
313 -311 -310 0
-314 12 0
-314 20 0
314 -12 -20 0
-315 313 0
-315 314 0
315 -313 -314 0
-316 -314 -313 0
-316 314 313 0
316 -314 313 0
316 314 -313 0
-317 -270 0
-317 -273 0
317 270 273 0
-318 316 0
-318 -317 0
318 -316 317 0
-319 317 -316 0
-319 -317 316 0
319 317 316 0
319 -317 -316 0
-320 13 0
-320 19 0
320 -13 -19 0
-321 319 0
-321 320 0
321 -319 -320 0
-322 -320 -319 0
-322 320 319 0
322 -320 319 0
322 320 -319 0
-323 -276 0
-323 -279 0
323 276 279 0
-324 322 0
-324 -323 0
324 -322 323 0
-325 323 -322 0
-325 -323 322 0
325 323 322 0
325 -323 -322 0
-326 14 0
-326 18 0
326 -14 -18 0
-327 325 0
-327 326 0
327 -325 -326 0
-328 -326 -325 0
-328 326 325 0
328 -326 325 0
328 326 -325 0
-329 -282 0
-329 -284 0
329 282 284 0
-330 328 0
-330 -329 0
330 -328 329 0
-331 329 -328 0
-331 -329 328 0
331 329 328 0
331 -329 -328 0
-332 17 0
-332 24 0
332 -17 -24 0
-333 331 0
-333 332 0
333 -331 -332 0
-334 -332 -331 0
-334 332 331 0
334 -332 331 0
334 332 -331 0
-335 287 0
-335 334 0
335 -287 -334 0
-336 -334 -287 0
-336 334 287 0
336 -334 287 0
336 334 -287 0
-337 16 0
-337 22 0
337 -16 -22 0
-338 336 0
-338 337 0
338 -336 -337 0
-339 -337 -336 0
-339 337 336 0
339 -337 336 0
339 337 -336 0
-340 26 0
-340 339 0
340 -26 -339 0
-341 -340 -300 0
-341 340 300 0
341 -340 300 0
341 340 -300 0
-342 -297 -294 0
-342 297 294 0
342 -297 294 0
342 297 -294 0
-343 27 0
-343 339 0
343 -27 -339 0
-344 342 0
-344 343 0
344 -342 -343 0
-345 -344 -341 0
-345 344 341 0
345 -344 341 0
345 344 -341 0
-346 8 0
-346 23 0
346 -8 -23 0
-347 9 0
-347 25 0
347 -9 -25 0
-348 -347 -346 0
-348 347 346 0
348 -347 346 0
348 347 -346 0
-349 -303 0
-349 -306 0
349 303 306 0
-350 349 -348 0
-350 -349 348 0
350 349 348 0
350 -349 -348 0
-351 10 0
-351 21 0
351 -10 -21 0
-352 -351 -350 0
-352 351 350 0
352 -351 350 0
352 351 -350 0
-353 -309 0
-353 -312 0
353 309 312 0
-354 353 -352 0
-354 -353 352 0
354 353 352 0
354 -353 -352 0
-355 11 0
-355 20 0
355 -11 -20 0
-356 -355 -354 0
-356 355 354 0
356 -355 354 0
356 355 -354 0
-357 -315 0
-357 -318 0
357 315 318 0
-358 357 -356 0
-358 -357 356 0
358 357 356 0
358 -357 -356 0
-359 12 0
-359 19 0
359 -12 -19 0
-360 -359 -358 0
-360 359 358 0
360 -359 358 0
360 359 -358 0
-361 -321 0
-361 -324 0
361 321 324 0
-362 361 -360 0
-362 -361 360 0
362 361 360 0
362 -361 -360 0
-363 13 0
-363 18 0
363 -13 -18 0
-364 -363 -362 0
-364 363 362 0
364 -363 362 0
364 363 -362 0
-365 -327 0
-365 -330 0
365 327 330 0
-366 365 -364 0
-366 -365 364 0
366 365 364 0
366 -365 -364 0
-367 14 0
-367 17 0
367 -14 -17 0
-368 -367 -366 0
-368 367 366 0
368 -367 366 0
368 367 -366 0
-369 -333 0
-369 -335 0
369 333 335 0
-370 369 -368 0
-370 -369 368 0
370 369 368 0
370 -369 -368 0
-371 16 0
-371 24 0
371 -16 -24 0
-372 -371 -370 0
-372 371 370 0
372 -371 370 0
372 371 -370 0
-373 -372 -338 0
-373 372 338 0
373 -372 338 0
373 372 -338 0
-374 15 0
-374 22 0
374 -15 -22 0
-375 -374 -373 0
-375 374 373 0
375 -374 373 0
375 374 -373 0
-376 27 0
-376 375 0
376 -27 -375 0
-377 -376 -345 0
-377 376 345 0
377 -376 345 0
377 376 -345 0
-378 1 0
-378 22 0
378 -1 -22 0
-379 2 0
-379 24 0
379 -2 -24 0
-380 -379 -378 0
-380 379 378 0
380 -379 378 0
380 379 -378 0
-381 2 0
-381 22 0
381 -2 -22 0
-382 3 0
-382 24 0
382 -3 -24 0
-383 381 0
-383 382 0
383 -381 -382 0
-384 -382 -381 0
-384 382 381 0
384 -382 381 0
384 382 -381 0
-385 3 0
-385 22 0
385 -3 -22 0
-386 4 0
-386 24 0
386 -4 -24 0
-387 385 0
-387 386 0
387 -385 -386 0
-388 -386 -385 0
-388 386 385 0
388 -386 385 0
388 386 -385 0
-389 4 0
-389 22 0
389 -4 -22 0
-390 5 0
-390 24 0
390 -5 -24 0
-391 389 0
-391 390 0
391 -389 -390 0
-392 -390 -389 0
-392 390 389 0
392 -390 389 0
392 390 -389 0
-393 5 0
-393 22 0
393 -5 -22 0
-394 6 0
-394 24 0
394 -6 -24 0
-395 393 0
-395 394 0
395 -393 -394 0
-396 -394 -393 0
-396 394 393 0
396 -394 393 0
396 394 -393 0
-397 6 0
-397 22 0
397 -6 -22 0
-398 7 0
-398 24 0
398 -7 -24 0
-399 397 0
-399 398 0
399 -397 -398 0
-400 -398 -397 0
-400 398 397 0
400 -398 397 0
400 398 -397 0
-401 7 0
-401 22 0
401 -7 -22 0
-402 24 0
-402 26 0
402 -24 -26 0
-403 401 0
-403 402 0
403 -401 -402 0
-404 -402 -401 0
-404 402 401 0
404 -402 401 0
404 402 -401 0
-405 22 0
-405 26 0
405 -22 -26 0
-406 24 0
-406 27 0
406 -24 -27 0
-407 405 0
-407 406 0
407 -405 -406 0
-408 404 0
-408 407 0
408 -404 -407 0
-409 -403 0
-409 -408 0
409 403 408 0
-410 400 0
-410 -409 0
410 -400 409 0
-411 -399 0
-411 -410 0
411 399 410 0
-412 396 0
-412 -411 0
412 -396 411 0
-413 -395 0
-413 -412 0
413 395 412 0
-414 392 0
-414 -413 0
414 -392 413 0
-415 -391 0
-415 -414 0
415 391 414 0
-416 388 0
-416 -415 0
416 -388 415 0
-417 -387 0
-417 -416 0
417 387 416 0
-418 384 0
-418 -417 0
418 -384 417 0
-419 -383 0
-419 -418 0
419 383 418 0
-420 419 -380 0
-420 -419 380 0
420 419 380 0
420 -419 -380 0
-421 3 0
-421 14 0
421 -3 -14 0
-422 -421 -420 0
-422 421 420 0
422 -421 420 0
422 421 -420 0
-423 417 -384 0
-423 -417 384 0
423 417 384 0
423 -417 -384 0
-424 4 0
-424 14 0
424 -4 -14 0
-425 423 0
-425 424 0
425 -423 -424 0
-426 -424 -423 0
-426 424 423 0
426 -424 423 0
426 424 -423 0
-427 415 -388 0
-427 -415 388 0
427 415 388 0
427 -415 -388 0
-428 5 0
-428 14 0
428 -5 -14 0
-429 427 0
-429 428 0
429 -427 -428 0
-430 -428 -427 0
-430 428 427 0
430 -428 427 0
430 428 -427 0
-431 413 -392 0
-431 -413 392 0
431 413 392 0
431 -413 -392 0
-432 6 0
-432 14 0
432 -6 -14 0
-433 431 0
-433 432 0
433 -431 -432 0
-434 -432 -431 0
-434 432 431 0
434 -432 431 0
434 432 -431 0
-435 411 -396 0
-435 -411 396 0
435 411 396 0
435 -411 -396 0
-436 7 0
-436 14 0
436 -7 -14 0
-437 435 0
-437 436 0
437 -435 -436 0
-438 -436 -435 0
-438 436 435 0
438 -436 435 0
438 436 -435 0
-439 409 -400 0
-439 -409 400 0
439 409 400 0
439 -409 -400 0
-440 14 0
-440 26 0
440 -14 -26 0
-441 439 0
-441 440 0
441 -439 -440 0
-442 -440 -439 0
-442 440 439 0
442 -440 439 0
442 440 -439 0
-443 -407 -404 0
-443 407 404 0
443 -407 404 0
443 407 -404 0
-444 14 0
-444 27 0
444 -14 -27 0
-445 443 0
-445 444 0
445 -443 -444 0
-446 442 0
-446 445 0
446 -442 -445 0
-447 -441 0
-447 -446 0
447 441 446 0
-448 438 0
-448 -447 0
448 -438 447 0
-449 -437 0
-449 -448 0
449 437 448 0
-450 434 0
-450 -449 0
450 -434 449 0
-451 -433 0
-451 -450 0
451 433 450 0
-452 430 0
-452 -451 0
452 -430 451 0
-453 -429 0
-453 -452 0
453 429 452 0
-454 426 0
-454 -453 0
454 -426 453 0
-455 -425 0
-455 -454 0
455 425 454 0
-456 455 -422 0
-456 -455 422 0
456 455 422 0
456 -455 -422 0
-457 4 0
-457 13 0
457 -4 -13 0
-458 -457 -456 0
-458 457 456 0
458 -457 456 0
458 457 -456 0
-459 453 -426 0
-459 -453 426 0
459 453 426 0
459 -453 -426 0
-460 5 0
-460 13 0
460 -5 -13 0
-461 459 0
-461 460 0
461 -459 -460 0
-462 -460 -459 0
-462 460 459 0
462 -460 459 0
462 460 -459 0
-463 451 -430 0
-463 -451 430 0
463 451 430 0
463 -451 -430 0
-464 6 0
-464 13 0
464 -6 -13 0
-465 463 0
-465 464 0
465 -463 -464 0
-466 -464 -463 0
-466 464 463 0
466 -464 463 0
466 464 -463 0
-467 449 -434 0
-467 -449 434 0
467 449 434 0
467 -449 -434 0
-468 7 0
-468 13 0
468 -7 -13 0
-469 467 0
-469 468 0
469 -467 -468 0
-470 -468 -467 0
-470 468 467 0
470 -468 467 0
470 468 -467 0
-471 447 -438 0
-471 -447 438 0
471 447 438 0
471 -447 -438 0
-472 13 0
-472 26 0
472 -13 -26 0
-473 471 0
-473 472 0
473 -471 -472 0
-474 -472 -471 0
-474 472 471 0
474 -472 471 0
474 472 -471 0
-475 -445 -442 0
-475 445 442 0
475 -445 442 0
475 445 -442 0
-476 13 0
-476 27 0
476 -13 -27 0
-477 475 0
-477 476 0
477 -475 -476 0
-478 474 0
-478 477 0
478 -474 -477 0
-479 -473 0
-479 -478 0
479 473 478 0
-480 470 0
-480 -479 0
480 -470 479 0
-481 -469 0
-481 -480 0
481 469 480 0
-482 466 0
-482 -481 0
482 -466 481 0
-483 -465 0
-483 -482 0
483 465 482 0
-484 462 0
-484 -483 0
484 -462 483 0
-485 -461 0
-485 -484 0
485 461 484 0
-486 485 -458 0
-486 -485 458 0
486 485 458 0
486 -485 -458 0
-487 5 0
-487 12 0
487 -5 -12 0
-488 -487 -486 0
-488 487 486 0
488 -487 486 0
488 487 -486 0
-489 483 -462 0
-489 -483 462 0
489 483 462 0
489 -483 -462 0
-490 6 0
-490 12 0
490 -6 -12 0
-491 489 0
-491 490 0
491 -489 -490 0
-492 -490 -489 0
-492 490 489 0
492 -490 489 0
492 490 -489 0
-493 481 -466 0
-493 -481 466 0
493 481 466 0
493 -481 -466 0
-494 7 0
-494 12 0
494 -7 -12 0
-495 493 0
-495 494 0
495 -493 -494 0
-496 -494 -493 0
-496 494 493 0
496 -494 493 0
496 494 -493 0
-497 479 -470 0
-497 -479 470 0
497 479 470 0
497 -479 -470 0
-498 12 0
-498 26 0
498 -12 -26 0
-499 497 0
-499 498 0
499 -497 -498 0
-500 -498 -497 0
-500 498 497 0
500 -498 497 0
500 498 -497 0
-501 -477 -474 0
-501 477 474 0
501 -477 474 0
501 477 -474 0
-502 12 0
-502 27 0
502 -12 -27 0
-503 501 0
-503 502 0
503 -501 -502 0
-504 500 0
-504 503 0
504 -500 -503 0
-505 -499 0
-505 -504 0
505 499 504 0
-506 496 0
-506 -505 0
506 -496 505 0
-507 -495 0
-507 -506 0
507 495 506 0
-508 492 0
-508 -507 0
508 -492 507 0
-509 -491 0
-509 -508 0
509 491 508 0
-510 509 -488 0
-510 -509 488 0
510 509 488 0
510 -509 -488 0
-511 6 0
-511 11 0
511 -6 -11 0
-512 -511 -510 0
-512 511 510 0
512 -511 510 0
512 511 -510 0
-513 507 -492 0
-513 -507 492 0
513 507 492 0
513 -507 -492 0
-514 7 0
-514 11 0
514 -7 -11 0
-515 513 0
-515 514 0
515 -513 -514 0
-516 -514 -513 0
-516 514 513 0
516 -514 513 0
516 514 -513 0
-517 505 -496 0
-517 -505 496 0
517 505 496 0
517 -505 -496 0
-518 11 0
-518 26 0
518 -11 -26 0
-519 517 0
-519 518 0
519 -517 -518 0
-520 -518 -517 0
-520 518 517 0
520 -518 517 0
520 518 -517 0
-521 -503 -500 0
-521 503 500 0
521 -503 500 0
521 503 -500 0
-522 11 0
-522 27 0
522 -11 -27 0
-523 521 0
-523 522 0
523 -521 -522 0
-524 520 0
-524 523 0
524 -520 -523 0
-525 -519 0
-525 -524 0
525 519 524 0
-526 516 0
-526 -525 0
526 -516 525 0
-527 -515 0
-527 -526 0
527 515 526 0
-528 527 -512 0
-528 -527 512 0
528 527 512 0
528 -527 -512 0
-529 7 0
-529 10 0
529 -7 -10 0
-530 -529 -528 0
-530 529 528 0
530 -529 528 0
530 529 -528 0
-531 525 -516 0
-531 -525 516 0
531 525 516 0
531 -525 -516 0
-532 10 0
-532 26 0
532 -10 -26 0
-533 531 0
-533 532 0
533 -531 -532 0
-534 -532 -531 0
-534 532 531 0
534 -532 531 0
534 532 -531 0
-535 -523 -520 0
-535 523 520 0
535 -523 520 0
535 523 -520 0
-536 10 0
-536 27 0
536 -10 -27 0
-537 535 0
-537 536 0
537 -535 -536 0
-538 534 0
-538 537 0
538 -534 -537 0
-539 -533 0
-539 -538 0
539 533 538 0
-540 539 -530 0
-540 -539 530 0
540 539 530 0
540 -539 -530 0
-541 9 0
-541 26 0
541 -9 -26 0
-542 -541 -540 0
-542 541 540 0
542 -541 540 0
542 541 -540 0
-543 -537 -534 0
-543 537 534 0
543 -537 534 0
543 537 -534 0
-544 9 0
-544 27 0
544 -9 -27 0
-545 543 0
-545 544 0
545 -543 -544 0
-546 -545 -542 0
-546 545 542 0
546 -545 542 0
546 545 -542 0
-547 8 0
-547 27 0
547 -8 -27 0
-548 -547 -546 0
-548 547 546 0
548 -547 546 0
548 547 -546 0
-549 23 0
-549 548 0
549 -23 -548 0
-550 -544 -543 0
-550 544 543 0
550 -544 543 0
550 544 -543 0
-551 25 0
-551 550 0
551 -25 -550 0
-552 -551 -549 0
-552 551 549 0
552 -551 549 0
552 551 -549 0
-553 23 0
-553 550 0
553 -23 -550 0
-554 -536 -535 0
-554 536 535 0
554 -536 535 0
554 536 -535 0
-555 25 0
-555 554 0
555 -25 -554 0
-556 553 0
-556 555 0
556 -553 -555 0
-557 -555 -553 0
-557 555 553 0
557 -555 553 0
557 555 -553 0
-558 23 0
-558 554 0
558 -23 -554 0
-559 -522 -521 0
-559 522 521 0
559 -522 521 0
559 522 -521 0
-560 25 0
-560 559 0
560 -25 -559 0
-561 558 0
-561 560 0
561 -558 -560 0
-562 -560 -558 0
-562 560 558 0
562 -560 558 0
562 560 -558 0
-563 23 0
-563 559 0
563 -23 -559 0
-564 -502 -501 0
-564 502 501 0
564 -502 501 0
564 502 -501 0
-565 25 0
-565 564 0
565 -25 -564 0
-566 563 0
-566 565 0
566 -563 -565 0
-567 -565 -563 0
-567 565 563 0
567 -565 563 0
567 565 -563 0
-568 23 0
-568 564 0
568 -23 -564 0
-569 -476 -475 0
-569 476 475 0
569 -476 475 0
569 476 -475 0
-570 25 0
-570 569 0
570 -25 -569 0
-571 568 0
-571 570 0
571 -568 -570 0
-572 -570 -568 0
-572 570 568 0
572 -570 568 0
572 570 -568 0
-573 23 0
-573 569 0
573 -23 -569 0
-574 -444 -443 0
-574 444 443 0
574 -444 443 0
574 444 -443 0
-575 25 0
-575 574 0
575 -25 -574 0
-576 573 0
-576 575 0
576 -573 -575 0
-577 -575 -573 0
-577 575 573 0
577 -575 573 0
577 575 -573 0
-578 23 0
-578 574 0
578 -23 -574 0
-579 -406 -405 0
-579 406 405 0
579 -406 405 0
579 406 -405 0
-580 25 0
-580 579 0
580 -25 -579 0
-581 578 0
-581 580 0
581 -578 -580 0
-582 -580 -578 0
-582 580 578 0
582 -580 578 0
582 580 -578 0
-583 23 0
-583 579 0
583 -23 -579 0
-584 22 0
-584 27 0
584 -22 -27 0
-585 25 0
-585 584 0
585 -25 -584 0
-586 583 0
-586 585 0
586 -583 -585 0
-587 582 0
-587 586 0
587 -582 -586 0
-588 -581 0
-588 -587 0
588 581 587 0
-589 577 0
-589 -588 0
589 -577 588 0
-590 -576 0
-590 -589 0
590 576 589 0
-591 572 0
-591 -590 0
591 -572 590 0
-592 -571 0
-592 -591 0
592 571 591 0
-593 567 0
-593 -592 0
593 -567 592 0
-594 -566 0
-594 -593 0
594 566 593 0
-595 562 0
-595 -594 0
595 -562 594 0
-596 -561 0
-596 -595 0
596 561 595 0
-597 557 0
-597 -596 0
597 -557 596 0
-598 -556 0
-598 -597 0
598 556 597 0
-599 598 -552 0
-599 -598 552 0
599 598 552 0
599 -598 -552 0
-600 21 0
-600 554 0
600 -21 -554 0
-601 -600 -599 0
-601 600 599 0
601 -600 599 0
601 600 -599 0
-602 596 -557 0
-602 -596 557 0
602 596 557 0
602 -596 -557 0
-603 21 0
-603 559 0
603 -21 -559 0
-604 602 0
-604 603 0
604 -602 -603 0
-605 -603 -602 0
-605 603 602 0
605 -603 602 0
605 603 -602 0
-606 594 -562 0
-606 -594 562 0
606 594 562 0
606 -594 -562 0
-607 21 0
-607 564 0
607 -21 -564 0
-608 606 0
-608 607 0
608 -606 -607 0
-609 -607 -606 0
-609 607 606 0
609 -607 606 0
609 607 -606 0
-610 592 -567 0
-610 -592 567 0
610 592 567 0
610 -592 -567 0
-611 21 0
-611 569 0
611 -21 -569 0
-612 610 0
-612 611 0
612 -610 -611 0
-613 -611 -610 0
-613 611 610 0
613 -611 610 0
613 611 -610 0
-614 590 -572 0
-614 -590 572 0
614 590 572 0
614 -590 -572 0
-615 21 0
-615 574 0
615 -21 -574 0
-616 614 0
-616 615 0
616 -614 -615 0
-617 -615 -614 0
-617 615 614 0
617 -615 614 0
617 615 -614 0
-618 588 -577 0
-618 -588 577 0
618 588 577 0
618 -588 -577 0
-619 21 0
-619 579 0
619 -21 -579 0
-620 618 0
-620 619 0
620 -618 -619 0
-621 -619 -618 0
-621 619 618 0
621 -619 618 0
621 619 -618 0
-622 -586 -582 0
-622 586 582 0
622 -586 582 0
622 586 -582 0
-623 21 0
-623 584 0
623 -21 -584 0
-624 622 0
-624 623 0
624 -622 -623 0
-625 621 0
-625 624 0
625 -621 -624 0
-626 -620 0
-626 -625 0
626 620 625 0
-627 617 0
-627 -626 0
627 -617 626 0
-628 -616 0
-628 -627 0
628 616 627 0
-629 613 0
-629 -628 0
629 -613 628 0
-630 -612 0
-630 -629 0
630 612 629 0
-631 609 0
-631 -630 0
631 -609 630 0
-632 -608 0
-632 -631 0
632 608 631 0
-633 605 0
-633 -632 0
633 -605 632 0
-634 -604 0
-634 -633 0
634 604 633 0
-635 634 -601 0
-635 -634 601 0
635 634 601 0
635 -634 -601 0
-636 20 0
-636 559 0
636 -20 -559 0
-637 -636 -635 0
-637 636 635 0
637 -636 635 0
637 636 -635 0
-638 632 -605 0
-638 -632 605 0
638 632 605 0
638 -632 -605 0
-639 20 0
-639 564 0
639 -20 -564 0
-640 638 0
-640 639 0
640 -638 -639 0
-641 -639 -638 0
-641 639 638 0
641 -639 638 0
641 639 -638 0
-642 630 -609 0
-642 -630 609 0
642 630 609 0
642 -630 -609 0
-643 20 0
-643 569 0
643 -20 -569 0
-644 642 0
-644 643 0
644 -642 -643 0
-645 -643 -642 0
-645 643 642 0
645 -643 642 0
645 643 -642 0
-646 628 -613 0
-646 -628 613 0
646 628 613 0
646 -628 -613 0
-647 20 0
-647 574 0
647 -20 -574 0
-648 646 0
-648 647 0
648 -646 -647 0
-649 -647 -646 0
-649 647 646 0
649 -647 646 0
649 647 -646 0
-650 626 -617 0
-650 -626 617 0
650 626 617 0
650 -626 -617 0
-651 20 0
-651 579 0
651 -20 -579 0
-652 650 0
-652 651 0
652 -650 -651 0
-653 -651 -650 0
-653 651 650 0
653 -651 650 0
653 651 -650 0
-654 -624 -621 0
-654 624 621 0
654 -624 621 0
654 624 -621 0
-655 20 0
-655 584 0
655 -20 -584 0
-656 654 0
-656 655 0
656 -654 -655 0
-657 653 0
-657 656 0
657 -653 -656 0
-658 -652 0
-658 -657 0
658 652 657 0
-659 649 0
-659 -658 0
659 -649 658 0
-660 -648 0
-660 -659 0
660 648 659 0
-661 645 0
-661 -660 0
661 -645 660 0
-662 -644 0
-662 -661 0
662 644 661 0
-663 641 0
-663 -662 0
663 -641 662 0
-664 -640 0
-664 -663 0
664 640 663 0
-665 664 -637 0
-665 -664 637 0
665 664 637 0
665 -664 -637 0
-666 19 0
-666 564 0
666 -19 -564 0
-667 -666 -665 0
-667 666 665 0
667 -666 665 0
667 666 -665 0
-668 662 -641 0
-668 -662 641 0
668 662 641 0
668 -662 -641 0
-669 19 0
-669 569 0
669 -19 -569 0
-670 668 0
-670 669 0
670 -668 -669 0
-671 -669 -668 0
-671 669 668 0
671 -669 668 0
671 669 -668 0
-672 660 -645 0
-672 -660 645 0
672 660 645 0
672 -660 -645 0
-673 19 0
-673 574 0
673 -19 -574 0
-674 672 0
-674 673 0
674 -672 -673 0
-675 -673 -672 0
-675 673 672 0
675 -673 672 0
675 673 -672 0
-676 658 -649 0
-676 -658 649 0
676 658 649 0
676 -658 -649 0
-677 19 0
-677 579 0
677 -19 -579 0
-678 676 0
-678 677 0
678 -676 -677 0
-679 -677 -676 0
-679 677 676 0
679 -677 676 0
679 677 -676 0
-680 -656 -653 0
-680 656 653 0
680 -656 653 0
680 656 -653 0
-681 19 0
-681 584 0
681 -19 -584 0
-682 680 0
-682 681 0
682 -680 -681 0
-683 679 0
-683 682 0
683 -679 -682 0
-684 -678 0
-684 -683 0
684 678 683 0
-685 675 0
-685 -684 0
685 -675 684 0
-686 -674 0
-686 -685 0
686 674 685 0
-687 671 0
-687 -686 0
687 -671 686 0
-688 -670 0
-688 -687 0
688 670 687 0
-689 688 -667 0
-689 -688 667 0
689 688 667 0
689 -688 -667 0
-690 18 0
-690 569 0
690 -18 -569 0
-691 -690 -689 0
-691 690 689 0
691 -690 689 0
691 690 -689 0
-692 686 -671 0
-692 -686 671 0
692 686 671 0
692 -686 -671 0
-693 18 0
-693 574 0
693 -18 -574 0
-694 692 0
-694 693 0
694 -692 -693 0
-695 -693 -692 0
-695 693 692 0
695 -693 692 0
695 693 -692 0
-696 684 -675 0
-696 -684 675 0
696 684 675 0
696 -684 -675 0
-697 18 0
-697 579 0
697 -18 -579 0
-698 696 0
-698 697 0
698 -696 -697 0
-699 -697 -696 0
-699 697 696 0
699 -697 696 0
699 697 -696 0
-700 -682 -679 0
-700 682 679 0
700 -682 679 0
700 682 -679 0
-701 18 0
-701 584 0
701 -18 -584 0
-702 700 0
-702 701 0
702 -700 -701 0
-703 699 0
-703 702 0
703 -699 -702 0
-704 -698 0
-704 -703 0
704 698 703 0
-705 695 0
-705 -704 0
705 -695 704 0
-706 -694 0
-706 -705 0
706 694 705 0
-707 706 -691 0
-707 -706 691 0
707 706 691 0
707 -706 -691 0
-708 17 0
-708 574 0
708 -17 -574 0
-709 -708 -707 0
-709 708 707 0
709 -708 707 0
709 708 -707 0
-710 704 -695 0
-710 -704 695 0
710 704 695 0
710 -704 -695 0
-711 17 0
-711 579 0
711 -17 -579 0
-712 710 0
-712 711 0
712 -710 -711 0
-713 -711 -710 0
-713 711 710 0
713 -711 710 0
713 711 -710 0
-714 -702 -699 0
-714 702 699 0
714 -702 699 0
714 702 -699 0
-715 17 0
-715 584 0
715 -17 -584 0
-716 714 0
-716 715 0
716 -714 -715 0
-717 713 0
-717 716 0
717 -713 -716 0
-718 -712 0
-718 -717 0
718 712 717 0
-719 718 -709 0
-719 -718 709 0
719 718 709 0
719 -718 -709 0
-720 16 0
-720 579 0
720 -16 -579 0
-721 -720 -719 0
-721 720 719 0
721 -720 719 0
721 720 -719 0
-722 -716 -713 0
-722 716 713 0
722 -716 713 0
722 716 -713 0
-723 16 0
-723 584 0
723 -16 -584 0
-724 722 0
-724 723 0
724 -722 -723 0
-725 -724 -721 0
-725 724 721 0
725 -724 721 0
725 724 -721 0
-726 15 0
-726 584 0
726 -15 -584 0
-727 -726 -725 0
-727 726 725 0
727 -726 725 0
727 726 -725 0
728 727 377 0
728 -727 -377 0
-729 -343 -342 0
-729 343 342 0
729 -343 342 0
729 343 -342 0
-730 -723 -722 0
-730 723 722 0
730 -723 722 0
730 723 -722 0
731 730 729 0
731 -730 -729 0
732 -728 -731 0
-733 -296 -295 0
-733 296 295 0
733 -296 295 0
733 296 -295 0
-734 -715 -714 0
-734 715 714 0
734 -715 714 0
734 715 -714 0
735 734 733 0
735 -734 -733 0
736 -732 -735 0
-737 -249 -248 0
-737 249 248 0
737 -249 248 0
737 249 -248 0
-738 -701 -700 0
-738 701 700 0
738 -701 700 0
738 701 -700 0
739 738 737 0
739 -738 -737 0
740 -736 -739 0
-741 -202 -201 0
-741 202 201 0
741 -202 201 0
741 202 -201 0
-742 -681 -680 0
-742 681 680 0
742 -681 680 0
742 681 -680 0
743 742 741 0
743 -742 -741 0
744 -740 -743 0
-745 -155 -154 0
-745 155 154 0
745 -155 154 0
745 155 -154 0
-746 -655 -654 0
-746 655 654 0
746 -655 654 0
746 655 -654 0
747 746 745 0
747 -746 -745 0
748 -744 -747 0
-749 -108 -107 0
-749 108 107 0
749 -108 107 0
749 108 -107 0
-750 -623 -622 0
-750 623 622 0
750 -623 622 0
750 623 -622 0
751 750 749 0
751 -750 -749 0
752 -748 -751 0
-753 -61 -60 0
-753 61 60 0
753 -61 60 0
753 61 -60 0
-754 -585 -583 0
-754 585 583 0
754 -585 583 0
754 585 -583 0
755 754 753 0
755 -754 -753 0
756 -752 -755 0
-757 27 0
-757 28 0
757 -27 -28 0
-758 23 0
-758 584 0
758 -23 -584 0
759 758 757 0
759 -758 -757 0
760 -756 -759 0
761 -20 -21 0
762 -19 -761 0
763 -18 -762 0
-764 -17 0
-764 -763 0
-765 -16 0
-765 764 0
766 -15 765 0
767 -6 -7 0
768 -5 -767 0
769 -4 -768 0
-770 -3 0
-770 -769 0
-771 -2 0
-771 770 0
772 -1 771 0
773 -13 -14 0
774 -12 -773 0
775 -11 -774 0
-776 -10 0
-776 -775 0
-777 -9 0
-777 776 0
778 -8 777 0
-779 -772 0
-779 -778 0
-780 -766 0
-780 779 0
-781 -760 0
-781 780 0
781 0
