p cnf 2716 8790
-49 46 0
-49 47 0
49 -46 -47 0
-50 1 0
-50 49 0
50 -1 -49 0
-51 30 0
-51 47 0
51 -30 -47 0
-52 45 0
-52 46 0
52 -45 -46 0
-53 51 0
-53 52 0
53 -51 -52 0
-54 -52 -51 0
-54 52 51 0
54 -52 51 0
54 52 -51 0
-55 2 0
-55 54 0
55 -2 -54 0
-56 -55 -50 0
-56 55 50 0
56 -55 50 0
56 55 -50 0
-57 2 0
-57 49 0
57 -2 -49 0
-58 3 0
-58 54 0
58 -3 -54 0
-59 57 0
-59 58 0
59 -57 -58 0
-60 -58 -57 0
-60 58 57 0
60 -58 57 0
60 58 -57 0
-61 3 0
-61 49 0
61 -3 -49 0
-62 4 0
-62 54 0
62 -4 -54 0
-63 61 0
-63 62 0
63 -61 -62 0
-64 -62 -61 0
-64 62 61 0
64 -62 61 0
64 62 -61 0
-65 4 0
-65 49 0
65 -4 -49 0
-66 5 0
-66 54 0
66 -5 -54 0
-67 65 0
-67 66 0
67 -65 -66 0
-68 -66 -65 0
-68 66 65 0
68 -66 65 0
68 66 -65 0
-69 5 0
-69 49 0
69 -5 -49 0
-70 6 0
-70 54 0
70 -6 -54 0
-71 69 0
-71 70 0
71 -69 -70 0
-72 -70 -69 0
-72 70 69 0
72 -70 69 0
72 70 -69 0
-73 6 0
-73 49 0
73 -6 -49 0
-74 7 0
-74 54 0
74 -7 -54 0
-75 73 0
-75 74 0
75 -73 -74 0
-76 -74 -73 0
-76 74 73 0
76 -74 73 0
76 74 -73 0
-77 7 0
-77 49 0
77 -7 -49 0
-78 8 0
-78 54 0
78 -8 -54 0
-79 77 0
-79 78 0
79 -77 -78 0
-80 -78 -77 0
-80 78 77 0
80 -78 77 0
80 78 -77 0
-81 8 0
-81 49 0
81 -8 -49 0
-82 9 0
-82 54 0
82 -9 -54 0
-83 81 0
-83 82 0
83 -81 -82 0
-84 -82 -81 0
-84 82 81 0
84 -82 81 0
84 82 -81 0
-85 9 0
-85 49 0
85 -9 -49 0
-86 10 0
-86 54 0
86 -10 -54 0
-87 85 0
-87 86 0
87 -85 -86 0
-88 -86 -85 0
-88 86 85 0
88 -86 85 0
88 86 -85 0
-89 10 0
-89 49 0
89 -10 -49 0
-90 11 0
-90 54 0
90 -11 -54 0
-91 89 0
-91 90 0
91 -89 -90 0
-92 -90 -89 0
-92 90 89 0
92 -90 89 0
92 90 -89 0
-93 11 0
-93 49 0
93 -11 -49 0
-94 12 0
-94 54 0
94 -12 -54 0
-95 93 0
-95 94 0
95 -93 -94 0
-96 -94 -93 0
-96 94 93 0
96 -94 93 0
96 94 -93 0
-97 12 0
-97 49 0
97 -12 -49 0
-98 13 0
-98 54 0
98 -13 -54 0
-99 97 0
-99 98 0
99 -97 -98 0
-100 -98 -97 0
-100 98 97 0
100 -98 97 0
100 98 -97 0
-101 13 0
-101 49 0
101 -13 -49 0
-102 14 0
-102 54 0
102 -14 -54 0
-103 101 0
-103 102 0
103 -101 -102 0
-104 -102 -101 0
-104 102 101 0
104 -102 101 0
104 102 -101 0
-105 14 0
-105 49 0
105 -14 -49 0
-106 15 0
-106 54 0
106 -15 -54 0
-107 105 0
-107 106 0
107 -105 -106 0
-108 -106 -105 0
-108 106 105 0
108 -106 105 0
108 106 -105 0
-109 15 0
-109 49 0
109 -15 -49 0
-110 48 0
-110 54 0
110 -48 -54 0
-111 109 0
-111 110 0
111 -109 -110 0
-112 108 0
-112 111 0
112 -108 -111 0
-113 -107 0
-113 -112 0
113 107 112 0
-114 104 0
-114 -113 0
114 -104 113 0
-115 -103 0
-115 -114 0
115 103 114 0
-116 100 0
-116 -115 0
116 -100 115 0
-117 -99 0
-117 -116 0
117 99 116 0
-118 96 0
-118 -117 0
118 -96 117 0
-119 -95 0
-119 -118 0
119 95 118 0
-120 92 0
-120 -119 0
120 -92 119 0
-121 -91 0
-121 -120 0
121 91 120 0
-122 88 0
-122 -121 0
122 -88 121 0
-123 -87 0
-123 -122 0
123 87 122 0
-124 84 0
-124 -123 0
124 -84 123 0
-125 -83 0
-125 -124 0
125 83 124 0
-126 80 0
-126 -125 0
126 -80 125 0
-127 -79 0
-127 -126 0
127 79 126 0
-128 76 0
-128 -127 0
128 -76 127 0
-129 -75 0
-129 -128 0
129 75 128 0
-130 72 0
-130 -129 0
130 -72 129 0
-131 -71 0
-131 -130 0
131 71 130 0
-132 68 0
-132 -131 0
132 -68 131 0
-133 -67 0
-133 -132 0
133 67 132 0
-134 64 0
-134 -133 0
134 -64 133 0
-135 -63 0
-135 -134 0
135 63 134 0
-136 60 0
-136 -135 0
136 -60 135 0
-137 -59 0
-137 -136 0
137 59 136 0
-138 137 -56 0
-138 -137 56 0
138 137 56 0
138 -137 -56 0
-139 29 0
-139 47 0
139 -29 -47 0
-140 30 0
-140 45 0
140 -30 -45 0
-141 139 0
-141 140 0
141 -139 -140 0
-142 -140 -139 0
-142 140 139 0
142 -140 139 0
142 140 -139 0
-143 53 0
-143 142 0
143 -53 -142 0
-144 -142 -53 0
-144 142 53 0
144 -142 53 0
144 142 -53 0
-145 44 0
-145 46 0
145 -44 -46 0
-146 144 0
-146 145 0
146 -144 -145 0
-147 -145 -144 0
-147 145 144 0
147 -145 144 0
147 145 -144 0
-148 3 0
-148 147 0
148 -3 -147 0
-149 -148 -138 0
-149 148 138 0
149 -148 138 0
149 148 -138 0
-150 135 -60 0
-150 -135 60 0
150 135 60 0
150 -135 -60 0
-151 4 0
-151 147 0
151 -4 -147 0
-152 150 0
-152 151 0
152 -150 -151 0
-153 -151 -150 0
-153 151 150 0
153 -151 150 0
153 151 -150 0
-154 133 -64 0
-154 -133 64 0
154 133 64 0
154 -133 -64 0
-155 5 0
-155 147 0
155 -5 -147 0
-156 154 0
-156 155 0
156 -154 -155 0
-157 -155 -154 0
-157 155 154 0
157 -155 154 0
157 155 -154 0
-158 131 -68 0
-158 -131 68 0
158 131 68 0
158 -131 -68 0
-159 6 0
-159 147 0
159 -6 -147 0
-160 158 0
-160 159 0
160 -158 -159 0
-161 -159 -158 0
-161 159 158 0
161 -159 158 0
161 159 -158 0
-162 129 -72 0
-162 -129 72 0
162 129 72 0
162 -129 -72 0
-163 7 0
-163 147 0
163 -7 -147 0
-164 162 0
-164 163 0
164 -162 -163 0
-165 -163 -162 0
-165 163 162 0
165 -163 162 0
165 163 -162 0
-166 127 -76 0
-166 -127 76 0
166 127 76 0
166 -127 -76 0
-167 8 0
-167 147 0
167 -8 -147 0
-168 166 0
-168 167 0
168 -166 -167 0
-169 -167 -166 0
-169 167 166 0
169 -167 166 0
169 167 -166 0
-170 125 -80 0
-170 -125 80 0
170 125 80 0
170 -125 -80 0
-171 9 0
-171 147 0
171 -9 -147 0
-172 170 0
-172 171 0
172 -170 -171 0
-173 -171 -170 0
-173 171 170 0
173 -171 170 0
173 171 -170 0
-174 123 -84 0
-174 -123 84 0
174 123 84 0
174 -123 -84 0
-175 10 0
-175 147 0
175 -10 -147 0
-176 174 0
-176 175 0
176 -174 -175 0
-177 -175 -174 0
-177 175 174 0
177 -175 174 0
177 175 -174 0
-178 121 -88 0
-178 -121 88 0
178 121 88 0
178 -121 -88 0
-179 11 0
-179 147 0
179 -11 -147 0
-180 178 0
-180 179 0
180 -178 -179 0
-181 -179 -178 0
-181 179 178 0
181 -179 178 0
181 179 -178 0
-182 119 -92 0
-182 -119 92 0
182 119 92 0
182 -119 -92 0
-183 12 0
-183 147 0
183 -12 -147 0
-184 182 0
-184 183 0
184 -182 -183 0
-185 -183 -182 0
-185 183 182 0
185 -183 182 0
185 183 -182 0
-186 117 -96 0
-186 -117 96 0
186 117 96 0
186 -117 -96 0
-187 13 0
-187 147 0
187 -13 -147 0
-188 186 0
-188 187 0
188 -186 -187 0
-189 -187 -186 0
-189 187 186 0
189 -187 186 0
189 187 -186 0
-190 115 -100 0
-190 -115 100 0
190 115 100 0
190 -115 -100 0
-191 14 0
-191 147 0
191 -14 -147 0
-192 190 0
-192 191 0
192 -190 -191 0
-193 -191 -190 0
-193 191 190 0
193 -191 190 0
193 191 -190 0
-194 113 -104 0
-194 -113 104 0
194 113 104 0
194 -113 -104 0
-195 15 0
-195 147 0
195 -15 -147 0
-196 194 0
-196 195 0
196 -194 -195 0
-197 -195 -194 0
-197 195 194 0
197 -195 194 0
197 195 -194 0
-198 -111 -108 0
-198 111 108 0
198 -111 108 0
198 111 -108 0
-199 48 0
-199 147 0
199 -48 -147 0
-200 198 0
-200 199 0
200 -198 -199 0
-201 197 0
-201 200 0
201 -197 -200 0
-202 -196 0
-202 -201 0
202 196 201 0
-203 193 0
-203 -202 0
203 -193 202 0
-204 -192 0
-204 -203 0
204 192 203 0
-205 189 0
-205 -204 0
205 -189 204 0
-206 -188 0
-206 -205 0
206 188 205 0
-207 185 0
-207 -206 0
207 -185 206 0
-208 -184 0
-208 -207 0
208 184 207 0
-209 181 0
-209 -208 0
209 -181 208 0
-210 -180 0
-210 -209 0
210 180 209 0
-211 177 0
-211 -210 0
211 -177 210 0
-212 -176 0
-212 -211 0
212 176 211 0
-213 173 0
-213 -212 0
213 -173 212 0
-214 -172 0
-214 -213 0
214 172 213 0
-215 169 0
-215 -214 0
215 -169 214 0
-216 -168 0
-216 -215 0
216 168 215 0
-217 165 0
-217 -216 0
217 -165 216 0
-218 -164 0
-218 -217 0
218 164 217 0
-219 161 0
-219 -218 0
219 -161 218 0
-220 -160 0
-220 -219 0
220 160 219 0
-221 157 0
-221 -220 0
221 -157 220 0
-222 -156 0
-222 -221 0
222 156 221 0
-223 153 0
-223 -222 0
223 -153 222 0
-224 -152 0
-224 -223 0
224 152 223 0
-225 224 -149 0
-225 -224 149 0
225 224 149 0
225 -224 -149 0
-226 28 0
-226 47 0
226 -28 -47 0
-227 29 0
-227 45 0
227 -29 -45 0
-228 226 0
-228 227 0
228 -226 -227 0
-229 -227 -226 0
-229 227 226 0
229 -227 226 0
229 227 -226 0
-230 -141 0
-230 -143 0
230 141 143 0
-231 229 0
-231 -230 0
231 -229 230 0
-232 230 -229 0
-232 -230 229 0
232 230 229 0
232 -230 -229 0
-233 30 0
-233 44 0
233 -30 -44 0
-234 232 0
-234 233 0
234 -232 -233 0
-235 -233 -232 0
-235 233 232 0
235 -233 232 0
235 233 -232 0
-236 146 0
-236 235 0
236 -146 -235 0
-237 -235 -146 0
-237 235 146 0
237 -235 146 0
237 235 -146 0
-238 43 0
-238 46 0
238 -43 -46 0
-239 237 0
-239 238 0
239 -237 -238 0
-240 -238 -237 0
-240 238 237 0
240 -238 237 0
240 238 -237 0
-241 4 0
-241 240 0
241 -4 -240 0
-242 -241 -225 0
-242 241 225 0
242 -241 225 0
242 241 -225 0
-243 222 -153 0
-243 -222 153 0
243 222 153 0
243 -222 -153 0
-244 5 0
-244 240 0
244 -5 -240 0
-245 243 0
-245 244 0
245 -243 -244 0
-246 -244 -243 0
-246 244 243 0
246 -244 243 0
246 244 -243 0
-247 220 -157 0
-247 -220 157 0
247 220 157 0
247 -220 -157 0
-248 6 0
-248 240 0
248 -6 -240 0
-249 247 0
-249 248 0
249 -247 -248 0
-250 -248 -247 0
-250 248 247 0
250 -248 247 0
250 248 -247 0
-251 218 -161 0
-251 -218 161 0
251 218 161 0
251 -218 -161 0
-252 7 0
-252 240 0
252 -7 -240 0
-253 251 0
-253 252 0
253 -251 -252 0
-254 -252 -251 0
-254 252 251 0
254 -252 251 0
254 252 -251 0
-255 216 -165 0
-255 -216 165 0
255 216 165 0
255 -216 -165 0
-256 8 0
-256 240 0
256 -8 -240 0
-257 255 0
-257 256 0
257 -255 -256 0
-258 -256 -255 0
-258 256 255 0
258 -256 255 0
258 256 -255 0
-259 214 -169 0
-259 -214 169 0
259 214 169 0
259 -214 -169 0
-260 9 0
-260 240 0
260 -9 -240 0
-261 259 0
-261 260 0
261 -259 -260 0
-262 -260 -259 0
-262 260 259 0
262 -260 259 0
262 260 -259 0
-263 212 -173 0
-263 -212 173 0
263 212 173 0
263 -212 -173 0
-264 10 0
-264 240 0
264 -10 -240 0
-265 263 0
-265 264 0
265 -263 -264 0
-266 -264 -263 0
-266 264 263 0
266 -264 263 0
266 264 -263 0
-267 210 -177 0
-267 -210 177 0
267 210 177 0
267 -210 -177 0
-268 11 0
-268 240 0
268 -11 -240 0
-269 267 0
-269 268 0
269 -267 -268 0
-270 -268 -267 0
-270 268 267 0
270 -268 267 0
270 268 -267 0
-271 208 -181 0
-271 -208 181 0
271 208 181 0
271 -208 -181 0
-272 12 0
-272 240 0
272 -12 -240 0
-273 271 0
-273 272 0
273 -271 -272 0
-274 -272 -271 0
-274 272 271 0
274 -272 271 0
274 272 -271 0
-275 206 -185 0
-275 -206 185 0
275 206 185 0
275 -206 -185 0
-276 13 0
-276 240 0
276 -13 -240 0
-277 275 0
-277 276 0
277 -275 -276 0
-278 -276 -275 0
-278 276 275 0
278 -276 275 0
278 276 -275 0
-279 204 -189 0
-279 -204 189 0
279 204 189 0
279 -204 -189 0
-280 14 0
-280 240 0
280 -14 -240 0
-281 279 0
-281 280 0
281 -279 -280 0
-282 -280 -279 0
-282 280 279 0
282 -280 279 0
282 280 -279 0
-283 202 -193 0
-283 -202 193 0
283 202 193 0
283 -202 -193 0
-284 15 0
-284 240 0
284 -15 -240 0
-285 283 0
-285 284 0
285 -283 -284 0
-286 -284 -283 0
-286 284 283 0
286 -284 283 0
286 284 -283 0
-287 -200 -197 0
-287 200 197 0
287 -200 197 0
287 200 -197 0
-288 48 0
-288 240 0
288 -48 -240 0
-289 287 0
-289 288 0
289 -287 -288 0
-290 286 0
-290 289 0
290 -286 -289 0
-291 -285 0
-291 -290 0
291 285 290 0
-292 282 0
-292 -291 0
292 -282 291 0
-293 -281 0
-293 -292 0
293 281 292 0
-294 278 0
-294 -293 0
294 -278 293 0
-295 -277 0
-295 -294 0
295 277 294 0
-296 274 0
-296 -295 0
296 -274 295 0
-297 -273 0
-297 -296 0
297 273 296 0
-298 270 0
-298 -297 0
298 -270 297 0
-299 -269 0
-299 -298 0
299 269 298 0
-300 266 0
-300 -299 0
300 -266 299 0
-301 -265 0
-301 -300 0
301 265 300 0
-302 262 0
-302 -301 0
302 -262 301 0
-303 -261 0
-303 -302 0
303 261 302 0
-304 258 0
-304 -303 0
304 -258 303 0
-305 -257 0
-305 -304 0
305 257 304 0
-306 254 0
-306 -305 0
306 -254 305 0
-307 -253 0
-307 -306 0
307 253 306 0
-308 250 0
-308 -307 0
308 -250 307 0
-309 -249 0
-309 -308 0
309 249 308 0
-310 246 0
-310 -309 0
310 -246 309 0
-311 -245 0
-311 -310 0
311 245 310 0
-312 311 -242 0
-312 -311 242 0
312 311 242 0
312 -311 -242 0
-313 27 0
-313 47 0
313 -27 -47 0
-314 28 0
-314 45 0
314 -28 -45 0
-315 313 0
-315 314 0
315 -313 -314 0
-316 -314 -313 0
-316 314 313 0
316 -314 313 0
316 314 -313 0
-317 -228 0
-317 -231 0
317 228 231 0
-318 316 0
-318 -317 0
318 -316 317 0
-319 317 -316 0
-319 -317 316 0
319 317 316 0
319 -317 -316 0
-320 29 0
-320 44 0
320 -29 -44 0
-321 319 0
-321 320 0
321 -319 -320 0
-322 -320 -319 0
-322 320 319 0
322 -320 319 0
322 320 -319 0
-323 -234 0
-323 -236 0
323 234 236 0
-324 322 0
-324 -323 0
324 -322 323 0
-325 323 -322 0
-325 -323 322 0
325 323 322 0
325 -323 -322 0
-326 30 0
-326 43 0
326 -30 -43 0
-327 325 0
-327 326 0
327 -325 -326 0
-328 -326 -325 0
-328 326 325 0
328 -326 325 0
328 326 -325 0
-329 239 0
-329 328 0
329 -239 -328 0
-330 -328 -239 0
-330 328 239 0
330 -328 239 0
330 328 -239 0
-331 42 0
-331 46 0
331 -42 -46 0
-332 330 0
-332 331 0
332 -330 -331 0
-333 -331 -330 0
-333 331 330 0
333 -331 330 0
333 331 -330 0
-334 5 0
-334 333 0
334 -5 -333 0
-335 -334 -312 0
-335 334 312 0
335 -334 312 0
335 334 -312 0
-336 309 -246 0
-336 -309 246 0
336 309 246 0
336 -309 -246 0
-337 6 0
-337 333 0
337 -6 -333 0
-338 336 0
-338 337 0
338 -336 -337 0
-339 -337 -336 0
-339 337 336 0
339 -337 336 0
339 337 -336 0
-340 307 -250 0
-340 -307 250 0
340 307 250 0
340 -307 -250 0
-341 7 0
-341 333 0
341 -7 -333 0
-342 340 0
-342 341 0
342 -340 -341 0
-343 -341 -340 0
-343 341 340 0
343 -341 340 0
343 341 -340 0
-344 305 -254 0
-344 -305 254 0
344 305 254 0
344 -305 -254 0
-345 8 0
-345 333 0
345 -8 -333 0
-346 344 0
-346 345 0
346 -344 -345 0
-347 -345 -344 0
-347 345 344 0
347 -345 344 0
347 345 -344 0
-348 303 -258 0
-348 -303 258 0
348 303 258 0
348 -303 -258 0
-349 9 0
-349 333 0
349 -9 -333 0
-350 348 0
-350 349 0
350 -348 -349 0
-351 -349 -348 0
-351 349 348 0
351 -349 348 0
351 349 -348 0
-352 301 -262 0
-352 -301 262 0
352 301 262 0
352 -301 -262 0
-353 10 0
-353 333 0
353 -10 -333 0
-354 352 0
-354 353 0
354 -352 -353 0
-355 -353 -352 0
-355 353 352 0
355 -353 352 0
355 353 -352 0
-356 299 -266 0
-356 -299 266 0
356 299 266 0
356 -299 -266 0
-357 11 0
-357 333 0
357 -11 -333 0
-358 356 0
-358 357 0
358 -356 -357 0
-359 -357 -356 0
-359 357 356 0
359 -357 356 0
359 357 -356 0
-360 297 -270 0
-360 -297 270 0
360 297 270 0
360 -297 -270 0
-361 12 0
-361 333 0
361 -12 -333 0
-362 360 0
-362 361 0
362 -360 -361 0
-363 -361 -360 0
-363 361 360 0
363 -361 360 0
363 361 -360 0
-364 295 -274 0
-364 -295 274 0
364 295 274 0
364 -295 -274 0
-365 13 0
-365 333 0
365 -13 -333 0
-366 364 0
-366 365 0
366 -364 -365 0
-367 -365 -364 0
-367 365 364 0
367 -365 364 0
367 365 -364 0
-368 293 -278 0
-368 -293 278 0
368 293 278 0
368 -293 -278 0
-369 14 0
-369 333 0
369 -14 -333 0
-370 368 0
-370 369 0
370 -368 -369 0
-371 -369 -368 0
-371 369 368 0
371 -369 368 0
371 369 -368 0
-372 291 -282 0
-372 -291 282 0
372 291 282 0
372 -291 -282 0
-373 15 0
-373 333 0
373 -15 -333 0
-374 372 0
-374 373 0
374 -372 -373 0
-375 -373 -372 0
-375 373 372 0
375 -373 372 0
375 373 -372 0
-376 -289 -286 0
-376 289 286 0
376 -289 286 0
376 289 -286 0
-377 48 0
-377 333 0
377 -48 -333 0
-378 376 0
-378 377 0
378 -376 -377 0
-379 375 0
-379 378 0
379 -375 -378 0
-380 -374 0
-380 -379 0
380 374 379 0
-381 371 0
-381 -380 0
381 -371 380 0
-382 -370 0
-382 -381 0
382 370 381 0
-383 367 0
-383 -382 0
383 -367 382 0
-384 -366 0
-384 -383 0
384 366 383 0
-385 363 0
-385 -384 0
385 -363 384 0
-386 -362 0
-386 -385 0
386 362 385 0
-387 359 0
-387 -386 0
387 -359 386 0
-388 -358 0
-388 -387 0
388 358 387 0
-389 355 0
-389 -388 0
389 -355 388 0
-390 -354 0
-390 -389 0
390 354 389 0
-391 351 0
-391 -390 0
391 -351 390 0
-392 -350 0
-392 -391 0
392 350 391 0
-393 347 0
-393 -392 0
393 -347 392 0
-394 -346 0
-394 -393 0
394 346 393 0
-395 343 0
-395 -394 0
395 -343 394 0
-396 -342 0
-396 -395 0
396 342 395 0
-397 339 0
-397 -396 0
397 -339 396 0
-398 -338 0
-398 -397 0
398 338 397 0
-399 398 -335 0
-399 -398 335 0
399 398 335 0
399 -398 -335 0
-400 26 0
-400 47 0
400 -26 -47 0
-401 27 0
-401 45 0
401 -27 -45 0
-402 400 0
-402 401 0
402 -400 -401 0
-403 -401 -400 0
-403 401 400 0
403 -401 400 0
403 401 -400 0
-404 -315 0
-404 -318 0
404 315 318 0
-405 403 0
-405 -404 0
405 -403 404 0
-406 404 -403 0
-406 -404 403 0
406 404 403 0
406 -404 -403 0
-407 28 0
-407 44 0
407 -28 -44 0
-408 406 0
-408 407 0
408 -406 -407 0
-409 -407 -406 0
-409 407 406 0
409 -407 406 0
409 407 -406 0
-410 -321 0
-410 -324 0
410 321 324 0
-411 409 0
-411 -410 0
411 -409 410 0
-412 410 -409 0
-412 -410 409 0
412 410 409 0
412 -410 -409 0
-413 29 0
-413 43 0
413 -29 -43 0
-414 412 0
-414 413 0
414 -412 -413 0
-415 -413 -412 0
-415 413 412 0
415 -413 412 0
415 413 -412 0
-416 -327 0
-416 -329 0
416 327 329 0
-417 415 0
-417 -416 0
417 -415 416 0
-418 416 -415 0
-418 -416 415 0
418 416 415 0
418 -416 -415 0
-419 30 0
-419 42 0
419 -30 -42 0
-420 418 0
-420 419 0
420 -418 -419 0
-421 -419 -418 0
-421 419 418 0
421 -419 418 0
421 419 -418 0
-422 332 0
-422 421 0
422 -332 -421 0
-423 -421 -332 0
-423 421 332 0
423 -421 332 0
423 421 -332 0
-424 41 0
-424 46 0
424 -41 -46 0
-425 423 0
-425 424 0
425 -423 -424 0
-426 -424 -423 0
-426 424 423 0
426 -424 423 0
426 424 -423 0
-427 6 0
-427 426 0
427 -6 -426 0
-428 -427 -399 0
-428 427 399 0
428 -427 399 0
428 427 -399 0
-429 396 -339 0
-429 -396 339 0
429 396 339 0
429 -396 -339 0
-430 7 0
-430 426 0
430 -7 -426 0
-431 429 0
-431 430 0
431 -429 -430 0
-432 -430 -429 0
-432 430 429 0
432 -430 429 0
432 430 -429 0
-433 394 -343 0
-433 -394 343 0
433 394 343 0
433 -394 -343 0
-434 8 0
-434 426 0
434 -8 -426 0
-435 433 0
-435 434 0
435 -433 -434 0
-436 -434 -433 0
-436 434 433 0
436 -434 433 0
436 434 -433 0
-437 392 -347 0
-437 -392 347 0
437 392 347 0
437 -392 -347 0
-438 9 0
-438 426 0
438 -9 -426 0
-439 437 0
-439 438 0
439 -437 -438 0
-440 -438 -437 0
-440 438 437 0
440 -438 437 0
440 438 -437 0
-441 390 -351 0
-441 -390 351 0
441 390 351 0
441 -390 -351 0
-442 10 0
-442 426 0
442 -10 -426 0
-443 441 0
-443 442 0
443 -441 -442 0
-444 -442 -441 0
-444 442 441 0
444 -442 441 0
444 442 -441 0
-445 388 -355 0
-445 -388 355 0
445 388 355 0
445 -388 -355 0
-446 11 0
-446 426 0
446 -11 -426 0
-447 445 0
-447 446 0
447 -445 -446 0
-448 -446 -445 0
-448 446 445 0
448 -446 445 0
448 446 -445 0
-449 386 -359 0
-449 -386 359 0
449 386 359 0
449 -386 -359 0
-450 12 0
-450 426 0
450 -12 -426 0
-451 449 0
-451 450 0
451 -449 -450 0
-452 -450 -449 0
-452 450 449 0
452 -450 449 0
452 450 -449 0
-453 384 -363 0
-453 -384 363 0
453 384 363 0
453 -384 -363 0
-454 13 0
-454 426 0
454 -13 -426 0
-455 453 0
-455 454 0
455 -453 -454 0
-456 -454 -453 0
-456 454 453 0
456 -454 453 0
456 454 -453 0
-457 382 -367 0
-457 -382 367 0
457 382 367 0
457 -382 -367 0
-458 14 0
-458 426 0
458 -14 -426 0
-459 457 0
-459 458 0
459 -457 -458 0
-460 -458 -457 0
-460 458 457 0
460 -458 457 0
460 458 -457 0
-461 380 -371 0
-461 -380 371 0
461 380 371 0
461 -380 -371 0
-462 15 0
-462 426 0
462 -15 -426 0
-463 461 0
-463 462 0
463 -461 -462 0
-464 -462 -461 0
-464 462 461 0
464 -462 461 0
464 462 -461 0
-465 -378 -375 0
-465 378 375 0
465 -378 375 0
465 378 -375 0
-466 48 0
-466 426 0
466 -48 -426 0
-467 465 0
-467 466 0
467 -465 -466 0
-468 464 0
-468 467 0
468 -464 -467 0
-469 -463 0
-469 -468 0
469 463 468 0
-470 460 0
-470 -469 0
470 -460 469 0
-471 -459 0
-471 -470 0
471 459 470 0
-472 456 0
-472 -471 0
472 -456 471 0
-473 -455 0
-473 -472 0
473 455 472 0
-474 452 0
-474 -473 0
474 -452 473 0
-475 -451 0
-475 -474 0
475 451 474 0
-476 448 0
-476 -475 0
476 -448 475 0
-477 -447 0
-477 -476 0
477 447 476 0
-478 444 0
-478 -477 0
478 -444 477 0
-479 -443 0
-479 -478 0
479 443 478 0
-480 440 0
-480 -479 0
480 -440 479 0
-481 -439 0
-481 -480 0
481 439 480 0
-482 436 0
-482 -481 0
482 -436 481 0
-483 -435 0
-483 -482 0
483 435 482 0
-484 432 0
-484 -483 0
484 -432 483 0
-485 -431 0
-485 -484 0
485 431 484 0
-486 485 -428 0
-486 -485 428 0
486 485 428 0
486 -485 -428 0
-487 25 0
-487 47 0
487 -25 -47 0
-488 26 0
-488 45 0
488 -26 -45 0
-489 487 0
-489 488 0
489 -487 -488 0
-490 -488 -487 0
-490 488 487 0
490 -488 487 0
490 488 -487 0
-491 -402 0
-491 -405 0
491 402 405 0
-492 490 0
-492 -491 0
492 -490 491 0
-493 491 -490 0
-493 -491 490 0
493 491 490 0
493 -491 -490 0
-494 27 0
-494 44 0
494 -27 -44 0
-495 493 0
-495 494 0
495 -493 -494 0
-496 -494 -493 0
-496 494 493 0
496 -494 493 0
496 494 -493 0
-497 -408 0
-497 -411 0
497 408 411 0
-498 496 0
-498 -497 0
498 -496 497 0
-499 497 -496 0
-499 -497 496 0
499 497 496 0
499 -497 -496 0
-500 28 0
-500 43 0
500 -28 -43 0
-501 499 0
-501 500 0
501 -499 -500 0
-502 -500 -499 0
-502 500 499 0
502 -500 499 0
502 500 -499 0
-503 -414 0
-503 -417 0
503 414 417 0
-504 502 0
-504 -503 0
504 -502 503 0
-505 503 -502 0
-505 -503 502 0
505 503 502 0
505 -503 -502 0
-506 29 0
-506 42 0
506 -29 -42 0
-507 505 0
-507 506 0
507 -505 -506 0
-508 -506 -505 0
-508 506 505 0
508 -506 505 0
508 506 -505 0
-509 -420 0
-509 -422 0
509 420 422 0
-510 508 0
-510 -509 0
510 -508 509 0
-511 509 -508 0
-511 -509 508 0
511 509 508 0
511 -509 -508 0
-512 30 0
-512 41 0
512 -30 -41 0
-513 511 0
-513 512 0
513 -511 -512 0
-514 -512 -511 0
-514 512 511 0
514 -512 511 0
514 512 -511 0
-515 425 0
-515 514 0
515 -425 -514 0
-516 -514 -425 0
-516 514 425 0
516 -514 425 0
516 514 -425 0
-517 40 0
-517 46 0
517 -40 -46 0
-518 516 0
-518 517 0
518 -516 -517 0
-519 -517 -516 0
-519 517 516 0
519 -517 516 0
519 517 -516 0
-520 7 0
-520 519 0
520 -7 -519 0
-521 -520 -486 0
-521 520 486 0
521 -520 486 0
521 520 -486 0
-522 483 -432 0
-522 -483 432 0
522 483 432 0
522 -483 -432 0
-523 8 0
-523 519 0
523 -8 -519 0
-524 522 0
-524 523 0
524 -522 -523 0
-525 -523 -522 0
-525 523 522 0
525 -523 522 0
525 523 -522 0
-526 481 -436 0
-526 -481 436 0
526 481 436 0
526 -481 -436 0
-527 9 0
-527 519 0
527 -9 -519 0
-528 526 0
-528 527 0
528 -526 -527 0
-529 -527 -526 0
-529 527 526 0
529 -527 526 0
529 527 -526 0
-530 479 -440 0
-530 -479 440 0
530 479 440 0
530 -479 -440 0
-531 10 0
-531 519 0
531 -10 -519 0
-532 530 0
-532 531 0
532 -530 -531 0
-533 -531 -530 0
-533 531 530 0
533 -531 530 0
533 531 -530 0
-534 477 -444 0
-534 -477 444 0
534 477 444 0
534 -477 -444 0
-535 11 0
-535 519 0
535 -11 -519 0
-536 534 0
-536 535 0
536 -534 -535 0
-537 -535 -534 0
-537 535 534 0
537 -535 534 0
537 535 -534 0
-538 475 -448 0
-538 -475 448 0
538 475 448 0
538 -475 -448 0
-539 12 0
-539 519 0
539 -12 -519 0
-540 538 0
-540 539 0
540 -538 -539 0
-541 -539 -538 0
-541 539 538 0
541 -539 538 0
541 539 -538 0
-542 473 -452 0
-542 -473 452 0
542 473 452 0
542 -473 -452 0
-543 13 0
-543 519 0
543 -13 -519 0
-544 542 0
-544 543 0
544 -542 -543 0
-545 -543 -542 0
-545 543 542 0
545 -543 542 0
545 543 -542 0
-546 471 -456 0
-546 -471 456 0
546 471 456 0
546 -471 -456 0
-547 14 0
-547 519 0
547 -14 -519 0
-548 546 0
-548 547 0
548 -546 -547 0
-549 -547 -546 0
-549 547 546 0
549 -547 546 0
549 547 -546 0
-550 469 -460 0
-550 -469 460 0
550 469 460 0
550 -469 -460 0
-551 15 0
-551 519 0
551 -15 -519 0
-552 550 0
-552 551 0
552 -550 -551 0
-553 -551 -550 0
-553 551 550 0
553 -551 550 0
553 551 -550 0
-554 -467 -464 0
-554 467 464 0
554 -467 464 0
554 467 -464 0
-555 48 0
-555 519 0
555 -48 -519 0
-556 554 0
-556 555 0
556 -554 -555 0
-557 553 0
-557 556 0
557 -553 -556 0
-558 -552 0
-558 -557 0
558 552 557 0
-559 549 0
-559 -558 0
559 -549 558 0
-560 -548 0
-560 -559 0
560 548 559 0
-561 545 0
-561 -560 0
561 -545 560 0
-562 -544 0
-562 -561 0
562 544 561 0
-563 541 0
-563 -562 0
563 -541 562 0
-564 -540 0
-564 -563 0
564 540 563 0
-565 537 0
-565 -564 0
565 -537 564 0
-566 -536 0
-566 -565 0
566 536 565 0
-567 533 0
-567 -566 0
567 -533 566 0
-568 -532 0
-568 -567 0
568 532 567 0
-569 529 0
-569 -568 0
569 -529 568 0
-570 -528 0
-570 -569 0
570 528 569 0
-571 525 0
-571 -570 0
571 -525 570 0
-572 -524 0
-572 -571 0
572 524 571 0
-573 572 -521 0
-573 -572 521 0
573 572 521 0
573 -572 -521 0
-574 24 0
-574 47 0
574 -24 -47 0
-575 25 0
-575 45 0
575 -25 -45 0
-576 574 0
-576 575 0
576 -574 -575 0
-577 -575 -574 0
-577 575 574 0
577 -575 574 0
577 575 -574 0
-578 -489 0
-578 -492 0
578 489 492 0
-579 577 0
-579 -578 0
579 -577 578 0
-580 578 -577 0
-580 -578 577 0
580 578 577 0
580 -578 -577 0
-581 26 0
-581 44 0
581 -26 -44 0
-582 580 0
-582 581 0
582 -580 -581 0
-583 -581 -580 0
-583 581 580 0
583 -581 580 0
583 581 -580 0
-584 -495 0
-584 -498 0
584 495 498 0
-585 583 0
-585 -584 0
585 -583 584 0
-586 584 -583 0
-586 -584 583 0
586 584 583 0
586 -584 -583 0
-587 27 0
-587 43 0
587 -27 -43 0
-588 586 0
-588 587 0
588 -586 -587 0
-589 -587 -586 0
-589 587 586 0
589 -587 586 0
589 587 -586 0
-590 -501 0
-590 -504 0
590 501 504 0
-591 589 0
-591 -590 0
591 -589 590 0
-592 590 -589 0
-592 -590 589 0
592 590 589 0
592 -590 -589 0
-593 28 0
-593 42 0
593 -28 -42 0
-594 592 0
-594 593 0
594 -592 -593 0
-595 -593 -592 0
-595 593 592 0
595 -593 592 0
595 593 -592 0
-596 -507 0
-596 -510 0
596 507 510 0
-597 595 0
-597 -596 0
597 -595 596 0
-598 596 -595 0
-598 -596 595 0
598 596 595 0
598 -596 -595 0
-599 29 0
-599 41 0
599 -29 -41 0
-600 598 0
-600 599 0
600 -598 -599 0
-601 -599 -598 0
-601 599 598 0
601 -599 598 0
601 599 -598 0
-602 -513 0
-602 -515 0
602 513 515 0
-603 601 0
-603 -602 0
603 -601 602 0
-604 602 -601 0
-604 -602 601 0
604 602 601 0
604 -602 -601 0
-605 30 0
-605 40 0
605 -30 -40 0
-606 604 0
-606 605 0
606 -604 -605 0
-607 -605 -604 0
-607 605 604 0
607 -605 604 0
607 605 -604 0
-608 518 0
-608 607 0
608 -518 -607 0
-609 -607 -518 0
-609 607 518 0
609 -607 518 0
609 607 -518 0
-610 39 0
-610 46 0
610 -39 -46 0
-611 609 0
-611 610 0
611 -609 -610 0
-612 -610 -609 0
-612 610 609 0
612 -610 609 0
612 610 -609 0
-613 8 0
-613 612 0
613 -8 -612 0
-614 -613 -573 0
-614 613 573 0
614 -613 573 0
614 613 -573 0
-615 570 -525 0
-615 -570 525 0
615 570 525 0
615 -570 -525 0
-616 9 0
-616 612 0
616 -9 -612 0
-617 615 0
-617 616 0
617 -615 -616 0
-618 -616 -615 0
-618 616 615 0
618 -616 615 0
618 616 -615 0
-619 568 -529 0
-619 -568 529 0
619 568 529 0
619 -568 -529 0
-620 10 0
-620 612 0
620 -10 -612 0
-621 619 0
-621 620 0
621 -619 -620 0
-622 -620 -619 0
-622 620 619 0
622 -620 619 0
622 620 -619 0
-623 566 -533 0
-623 -566 533 0
623 566 533 0
623 -566 -533 0
-624 11 0
-624 612 0
624 -11 -612 0
-625 623 0
-625 624 0
625 -623 -624 0
-626 -624 -623 0
-626 624 623 0
626 -624 623 0
626 624 -623 0
-627 564 -537 0
-627 -564 537 0
627 564 537 0
627 -564 -537 0
-628 12 0
-628 612 0
628 -12 -612 0
-629 627 0
-629 628 0
629 -627 -628 0
-630 -628 -627 0
-630 628 627 0
630 -628 627 0
630 628 -627 0
-631 562 -541 0
-631 -562 541 0
631 562 541 0
631 -562 -541 0
-632 13 0
-632 612 0
632 -13 -612 0
-633 631 0
-633 632 0
633 -631 -632 0
-634 -632 -631 0
-634 632 631 0
634 -632 631 0
634 632 -631 0
-635 560 -545 0
-635 -560 545 0
635 560 545 0
635 -560 -545 0
-636 14 0
-636 612 0
636 -14 -612 0
-637 635 0
-637 636 0
637 -635 -636 0
-638 -636 -635 0
-638 636 635 0
638 -636 635 0
638 636 -635 0
-639 558 -549 0
-639 -558 549 0
639 558 549 0
639 -558 -549 0
-640 15 0
-640 612 0
640 -15 -612 0
-641 639 0
-641 640 0
641 -639 -640 0
-642 -640 -639 0
-642 640 639 0
642 -640 639 0
642 640 -639 0
-643 -556 -553 0
-643 556 553 0
643 -556 553 0
643 556 -553 0
-644 48 0
-644 612 0
644 -48 -612 0
-645 643 0
-645 644 0
645 -643 -644 0
-646 642 0
-646 645 0
646 -642 -645 0
-647 -641 0
-647 -646 0
647 641 646 0
-648 638 0
-648 -647 0
648 -638 647 0
-649 -637 0
-649 -648 0
649 637 648 0
-650 634 0
-650 -649 0
650 -634 649 0
-651 -633 0
-651 -650 0
651 633 650 0
-652 630 0
-652 -651 0
652 -630 651 0
-653 -629 0
-653 -652 0
653 629 652 0
-654 626 0
-654 -653 0
654 -626 653 0
-655 -625 0
-655 -654 0
655 625 654 0
-656 622 0
-656 -655 0
656 -622 655 0
-657 -621 0
-657 -656 0
657 621 656 0
-658 618 0
-658 -657 0
658 -618 657 0
-659 -617 0
-659 -658 0
659 617 658 0
-660 659 -614 0
-660 -659 614 0
660 659 614 0
660 -659 -614 0
-661 23 0
-661 47 0
661 -23 -47 0
-662 24 0
-662 45 0
662 -24 -45 0
-663 661 0
-663 662 0
663 -661 -662 0
-664 -662 -661 0
-664 662 661 0
664 -662 661 0
664 662 -661 0
-665 -576 0
-665 -579 0
665 576 579 0
-666 664 0
-666 -665 0
666 -664 665 0
-667 665 -664 0
-667 -665 664 0
667 665 664 0
667 -665 -664 0
-668 25 0
-668 44 0
668 -25 -44 0
-669 667 0
-669 668 0
669 -667 -668 0
-670 -668 -667 0
-670 668 667 0
670 -668 667 0
670 668 -667 0
-671 -582 0
-671 -585 0
671 582 585 0
-672 670 0
-672 -671 0
672 -670 671 0
-673 671 -670 0
-673 -671 670 0
673 671 670 0
673 -671 -670 0
-674 26 0
-674 43 0
674 -26 -43 0
-675 673 0
-675 674 0
675 -673 -674 0
-676 -674 -673 0
-676 674 673 0
676 -674 673 0
676 674 -673 0
-677 -588 0
-677 -591 0
677 588 591 0
-678 676 0
-678 -677 0
678 -676 677 0
-679 677 -676 0
-679 -677 676 0
679 677 676 0
679 -677 -676 0
-680 27 0
-680 42 0
680 -27 -42 0
-681 679 0
-681 680 0
681 -679 -680 0
-682 -680 -679 0
-682 680 679 0
682 -680 679 0
682 680 -679 0
-683 -594 0
-683 -597 0
683 594 597 0
-684 682 0
-684 -683 0
684 -682 683 0
-685 683 -682 0
-685 -683 682 0
685 683 682 0
685 -683 -682 0
-686 28 0
-686 41 0
686 -28 -41 0
-687 685 0
-687 686 0
687 -685 -686 0
-688 -686 -685 0
-688 686 685 0
688 -686 685 0
688 686 -685 0
-689 -600 0
-689 -603 0
689 600 603 0
-690 688 0
-690 -689 0
690 -688 689 0
-691 689 -688 0
-691 -689 688 0
691 689 688 0
691 -689 -688 0
-692 29 0
-692 40 0
692 -29 -40 0
-693 691 0
-693 692 0
693 -691 -692 0
-694 -692 -691 0
-694 692 691 0
694 -692 691 0
694 692 -691 0
-695 -606 0
-695 -608 0
695 606 608 0
-696 694 0
-696 -695 0
696 -694 695 0
-697 695 -694 0
-697 -695 694 0
697 695 694 0
697 -695 -694 0
-698 30 0
-698 39 0
698 -30 -39 0
-699 697 0
-699 698 0
699 -697 -698 0
-700 -698 -697 0
-700 698 697 0
700 -698 697 0
700 698 -697 0
-701 611 0
-701 700 0
701 -611 -700 0
-702 -700 -611 0
-702 700 611 0
702 -700 611 0
702 700 -611 0
-703 38 0
-703 46 0
703 -38 -46 0
-704 702 0
-704 703 0
704 -702 -703 0
-705 -703 -702 0
-705 703 702 0
705 -703 702 0
705 703 -702 0
-706 9 0
-706 705 0
706 -9 -705 0
-707 -706 -660 0
-707 706 660 0
707 -706 660 0
707 706 -660 0
-708 657 -618 0
-708 -657 618 0
708 657 618 0
708 -657 -618 0
-709 10 0
-709 705 0
709 -10 -705 0
-710 708 0
-710 709 0
710 -708 -709 0
-711 -709 -708 0
-711 709 708 0
711 -709 708 0
711 709 -708 0
-712 655 -622 0
-712 -655 622 0
712 655 622 0
712 -655 -622 0
-713 11 0
-713 705 0
713 -11 -705 0
-714 712 0
-714 713 0
714 -712 -713 0
-715 -713 -712 0
-715 713 712 0
715 -713 712 0
715 713 -712 0
-716 653 -626 0
-716 -653 626 0
716 653 626 0
716 -653 -626 0
-717 12 0
-717 705 0
717 -12 -705 0
-718 716 0
-718 717 0
718 -716 -717 0
-719 -717 -716 0
-719 717 716 0
719 -717 716 0
719 717 -716 0
-720 651 -630 0
-720 -651 630 0
720 651 630 0
720 -651 -630 0
-721 13 0
-721 705 0
721 -13 -705 0
-722 720 0
-722 721 0
722 -720 -721 0
-723 -721 -720 0
-723 721 720 0
723 -721 720 0
723 721 -720 0
-724 649 -634 0
-724 -649 634 0
724 649 634 0
724 -649 -634 0
-725 14 0
-725 705 0
725 -14 -705 0
-726 724 0
-726 725 0
726 -724 -725 0
-727 -725 -724 0
-727 725 724 0
727 -725 724 0
727 725 -724 0
-728 647 -638 0
-728 -647 638 0
728 647 638 0
728 -647 -638 0
-729 15 0
-729 705 0
729 -15 -705 0
-730 728 0
-730 729 0
730 -728 -729 0
-731 -729 -728 0
-731 729 728 0
731 -729 728 0
731 729 -728 0
-732 -645 -642 0
-732 645 642 0
732 -645 642 0
732 645 -642 0
-733 48 0
-733 705 0
733 -48 -705 0
-734 732 0
-734 733 0
734 -732 -733 0
-735 731 0
-735 734 0
735 -731 -734 0
-736 -730 0
-736 -735 0
736 730 735 0
-737 727 0
-737 -736 0
737 -727 736 0
-738 -726 0
-738 -737 0
738 726 737 0
-739 723 0
-739 -738 0
739 -723 738 0
-740 -722 0
-740 -739 0
740 722 739 0
-741 719 0
-741 -740 0
741 -719 740 0
-742 -718 0
-742 -741 0
742 718 741 0
-743 715 0
-743 -742 0
743 -715 742 0
-744 -714 0
-744 -743 0
744 714 743 0
-745 711 0
-745 -744 0
745 -711 744 0
-746 -710 0
-746 -745 0
746 710 745 0
-747 746 -707 0
-747 -746 707 0
747 746 707 0
747 -746 -707 0
-748 22 0
-748 47 0
748 -22 -47 0
-749 23 0
-749 45 0
749 -23 -45 0
-750 748 0
-750 749 0
750 -748 -749 0
-751 -749 -748 0
-751 749 748 0
751 -749 748 0
751 749 -748 0
-752 -663 0
-752 -666 0
752 663 666 0
-753 751 0
-753 -752 0
753 -751 752 0
-754 752 -751 0
-754 -752 751 0
754 752 751 0
754 -752 -751 0
-755 24 0
-755 44 0
755 -24 -44 0
-756 754 0
-756 755 0
756 -754 -755 0
-757 -755 -754 0
-757 755 754 0
757 -755 754 0
757 755 -754 0
-758 -669 0
-758 -672 0
758 669 672 0
-759 757 0
-759 -758 0
759 -757 758 0
-760 758 -757 0
-760 -758 757 0
760 758 757 0
760 -758 -757 0
-761 25 0
-761 43 0
761 -25 -43 0
-762 760 0
-762 761 0
762 -760 -761 0
-763 -761 -760 0
-763 761 760 0
763 -761 760 0
763 761 -760 0
-764 -675 0
-764 -678 0
764 675 678 0
-765 763 0
-765 -764 0
765 -763 764 0
-766 764 -763 0
-766 -764 763 0
766 764 763 0
766 -764 -763 0
-767 26 0
-767 42 0
767 -26 -42 0
-768 766 0
-768 767 0
768 -766 -767 0
-769 -767 -766 0
-769 767 766 0
769 -767 766 0
769 767 -766 0
-770 -681 0
-770 -684 0
770 681 684 0
-771 769 0
-771 -770 0
771 -769 770 0
-772 770 -769 0
-772 -770 769 0
772 770 769 0
772 -770 -769 0
-773 27 0
-773 41 0
773 -27 -41 0
-774 772 0
-774 773 0
774 -772 -773 0
-775 -773 -772 0
-775 773 772 0
775 -773 772 0
775 773 -772 0
-776 -687 0
-776 -690 0
776 687 690 0
-777 775 0
-777 -776 0
777 -775 776 0
-778 776 -775 0
-778 -776 775 0
778 776 775 0
778 -776 -775 0
-779 28 0
-779 40 0
779 -28 -40 0
-780 778 0
-780 779 0
780 -778 -779 0
-781 -779 -778 0
-781 779 778 0
781 -779 778 0
781 779 -778 0
-782 -693 0
-782 -696 0
782 693 696 0
-783 781 0
-783 -782 0
783 -781 782 0
-784 782 -781 0
-784 -782 781 0
784 782 781 0
784 -782 -781 0
-785 29 0
-785 39 0
785 -29 -39 0
-786 784 0
-786 785 0
786 -784 -785 0
-787 -785 -784 0
-787 785 784 0
787 -785 784 0
787 785 -784 0
-788 -699 0
-788 -701 0
788 699 701 0
-789 787 0
-789 -788 0
789 -787 788 0
-790 788 -787 0
-790 -788 787 0
790 788 787 0
790 -788 -787 0
-791 30 0
-791 38 0
791 -30 -38 0
-792 790 0
-792 791 0
792 -790 -791 0
-793 -791 -790 0
-793 791 790 0
793 -791 790 0
793 791 -790 0
-794 704 0
-794 793 0
794 -704 -793 0
-795 -793 -704 0
-795 793 704 0
795 -793 704 0
795 793 -704 0
-796 37 0
-796 46 0
796 -37 -46 0
-797 795 0
-797 796 0
797 -795 -796 0
-798 -796 -795 0
-798 796 795 0
798 -796 795 0
798 796 -795 0
-799 10 0
-799 798 0
799 -10 -798 0
-800 -799 -747 0
-800 799 747 0
800 -799 747 0
800 799 -747 0
-801 744 -711 0
-801 -744 711 0
801 744 711 0
801 -744 -711 0
-802 11 0
-802 798 0
802 -11 -798 0
-803 801 0
-803 802 0
803 -801 -802 0
-804 -802 -801 0
-804 802 801 0
804 -802 801 0
804 802 -801 0
-805 742 -715 0
-805 -742 715 0
805 742 715 0
805 -742 -715 0
-806 12 0
-806 798 0
806 -12 -798 0
-807 805 0
-807 806 0
807 -805 -806 0
-808 -806 -805 0
-808 806 805 0
808 -806 805 0
808 806 -805 0
-809 740 -719 0
-809 -740 719 0
809 740 719 0
809 -740 -719 0
-810 13 0
-810 798 0
810 -13 -798 0
-811 809 0
-811 810 0
811 -809 -810 0
-812 -810 -809 0
-812 810 809 0
812 -810 809 0
812 810 -809 0
-813 738 -723 0
-813 -738 723 0
813 738 723 0
813 -738 -723 0
-814 14 0
-814 798 0
814 -14 -798 0
-815 813 0
-815 814 0
815 -813 -814 0
-816 -814 -813 0
-816 814 813 0
816 -814 813 0
816 814 -813 0
-817 736 -727 0
-817 -736 727 0
817 736 727 0
817 -736 -727 0
-818 15 0
-818 798 0
818 -15 -798 0
-819 817 0
-819 818 0
819 -817 -818 0
-820 -818 -817 0
-820 818 817 0
820 -818 817 0
820 818 -817 0
-821 -734 -731 0
-821 734 731 0
821 -734 731 0
821 734 -731 0
-822 48 0
-822 798 0
822 -48 -798 0
-823 821 0
-823 822 0
823 -821 -822 0
-824 820 0
-824 823 0
824 -820 -823 0
-825 -819 0
-825 -824 0
825 819 824 0
-826 816 0
-826 -825 0
826 -816 825 0
-827 -815 0
-827 -826 0
827 815 826 0
-828 812 0
-828 -827 0
828 -812 827 0
-829 -811 0
-829 -828 0
829 811 828 0
-830 808 0
-830 -829 0
830 -808 829 0
-831 -807 0
-831 -830 0
831 807 830 0
-832 804 0
-832 -831 0
832 -804 831 0
-833 -803 0
-833 -832 0
833 803 832 0
-834 833 -800 0
-834 -833 800 0
834 833 800 0
834 -833 -800 0
-835 21 0
-835 47 0
835 -21 -47 0
-836 22 0
-836 45 0
836 -22 -45 0
-837 835 0
-837 836 0
837 -835 -836 0
-838 -836 -835 0
-838 836 835 0
838 -836 835 0
838 836 -835 0
-839 -750 0
-839 -753 0
839 750 753 0
-840 838 0
-840 -839 0
840 -838 839 0
-841 839 -838 0
-841 -839 838 0
841 839 838 0
841 -839 -838 0
-842 23 0
-842 44 0
842 -23 -44 0
-843 841 0
-843 842 0
843 -841 -842 0
-844 -842 -841 0
-844 842 841 0
844 -842 841 0
844 842 -841 0
-845 -756 0
-845 -759 0
845 756 759 0
-846 844 0
-846 -845 0
846 -844 845 0
-847 845 -844 0
-847 -845 844 0
847 845 844 0
847 -845 -844 0
-848 24 0
-848 43 0
848 -24 -43 0
-849 847 0
-849 848 0
849 -847 -848 0
-850 -848 -847 0
-850 848 847 0
850 -848 847 0
850 848 -847 0
-851 -762 0
-851 -765 0
851 762 765 0
-852 850 0
-852 -851 0
852 -850 851 0
-853 851 -850 0
-853 -851 850 0
853 851 850 0
853 -851 -850 0
-854 25 0
-854 42 0
854 -25 -42 0
-855 853 0
-855 854 0
855 -853 -854 0
-856 -854 -853 0
-856 854 853 0
856 -854 853 0
856 854 -853 0
-857 -768 0
-857 -771 0
857 768 771 0
-858 856 0
-858 -857 0
858 -856 857 0
-859 857 -856 0
-859 -857 856 0
859 857 856 0
859 -857 -856 0
-860 26 0
-860 41 0
860 -26 -41 0
-861 859 0
-861 860 0
861 -859 -860 0
-862 -860 -859 0
-862 860 859 0
862 -860 859 0
862 860 -859 0
-863 -774 0
-863 -777 0
863 774 777 0
-864 862 0
-864 -863 0
864 -862 863 0
-865 863 -862 0
-865 -863 862 0
865 863 862 0
865 -863 -862 0
-866 27 0
-866 40 0
866 -27 -40 0
-867 865 0
-867 866 0
867 -865 -866 0
-868 -866 -865 0
-868 866 865 0
868 -866 865 0
868 866 -865 0
-869 -780 0
-869 -783 0
869 780 783 0
-870 868 0
-870 -869 0
870 -868 869 0
-871 869 -868 0
-871 -869 868 0
871 869 868 0
871 -869 -868 0
-872 28 0
-872 39 0
872 -28 -39 0
-873 871 0
-873 872 0
873 -871 -872 0
-874 -872 -871 0
-874 872 871 0
874 -872 871 0
874 872 -871 0
-875 -786 0
-875 -789 0
875 786 789 0
-876 874 0
-876 -875 0
876 -874 875 0
-877 875 -874 0
-877 -875 874 0
877 875 874 0
877 -875 -874 0
-878 29 0
-878 38 0
878 -29 -38 0
-879 877 0
-879 878 0
879 -877 -878 0
-880 -878 -877 0
-880 878 877 0
880 -878 877 0
880 878 -877 0
-881 -792 0
-881 -794 0
881 792 794 0
-882 880 0
-882 -881 0
882 -880 881 0
-883 881 -880 0
-883 -881 880 0
883 881 880 0
883 -881 -880 0
-884 30 0
-884 37 0
884 -30 -37 0
-885 883 0
-885 884 0
885 -883 -884 0
-886 -884 -883 0
-886 884 883 0
886 -884 883 0
886 884 -883 0
-887 797 0
-887 886 0
887 -797 -886 0
-888 -886 -797 0
-888 886 797 0
888 -886 797 0
888 886 -797 0
-889 36 0
-889 46 0
889 -36 -46 0
-890 888 0
-890 889 0
890 -888 -889 0
-891 -889 -888 0
-891 889 888 0
891 -889 888 0
891 889 -888 0
-892 11 0
-892 891 0
892 -11 -891 0
-893 -892 -834 0
-893 892 834 0
893 -892 834 0
893 892 -834 0
-894 831 -804 0
-894 -831 804 0
894 831 804 0
894 -831 -804 0
-895 12 0
-895 891 0
895 -12 -891 0
-896 894 0
-896 895 0
896 -894 -895 0
-897 -895 -894 0
-897 895 894 0
897 -895 894 0
897 895 -894 0
-898 829 -808 0
-898 -829 808 0
898 829 808 0
898 -829 -808 0
-899 13 0
-899 891 0
899 -13 -891 0
-900 898 0
-900 899 0
900 -898 -899 0
-901 -899 -898 0
-901 899 898 0
901 -899 898 0
901 899 -898 0
-902 827 -812 0
-902 -827 812 0
902 827 812 0
902 -827 -812 0
-903 14 0
-903 891 0
903 -14 -891 0
-904 902 0
-904 903 0
904 -902 -903 0
-905 -903 -902 0
-905 903 902 0
905 -903 902 0
905 903 -902 0
-906 825 -816 0
-906 -825 816 0
906 825 816 0
906 -825 -816 0
-907 15 0
-907 891 0
907 -15 -891 0
-908 906 0
-908 907 0
908 -906 -907 0
-909 -907 -906 0
-909 907 906 0
909 -907 906 0
909 907 -906 0
-910 -823 -820 0
-910 823 820 0
910 -823 820 0
910 823 -820 0
-911 48 0
-911 891 0
911 -48 -891 0
-912 910 0
-912 911 0
912 -910 -911 0
-913 909 0
-913 912 0
913 -909 -912 0
-914 -908 0
-914 -913 0
914 908 913 0
-915 905 0
-915 -914 0
915 -905 914 0
-916 -904 0
-916 -915 0
916 904 915 0
-917 901 0
-917 -916 0
917 -901 916 0
-918 -900 0
-918 -917 0
918 900 917 0
-919 897 0
-919 -918 0
919 -897 918 0
-920 -896 0
-920 -919 0
920 896 919 0
-921 920 -893 0
-921 -920 893 0
921 920 893 0
921 -920 -893 0
-922 20 0
-922 47 0
922 -20 -47 0
-923 21 0
-923 45 0
923 -21 -45 0
-924 922 0
-924 923 0
924 -922 -923 0
-925 -923 -922 0
-925 923 922 0
925 -923 922 0
925 923 -922 0
-926 -837 0
-926 -840 0
926 837 840 0
-927 925 0
-927 -926 0
927 -925 926 0
-928 926 -925 0
-928 -926 925 0
928 926 925 0
928 -926 -925 0
-929 22 0
-929 44 0
929 -22 -44 0
-930 928 0
-930 929 0
930 -928 -929 0
-931 -929 -928 0
-931 929 928 0
931 -929 928 0
931 929 -928 0
-932 -843 0
-932 -846 0
932 843 846 0
-933 931 0
-933 -932 0
933 -931 932 0
-934 932 -931 0
-934 -932 931 0
934 932 931 0
934 -932 -931 0
-935 23 0
-935 43 0
935 -23 -43 0
-936 934 0
-936 935 0
936 -934 -935 0
-937 -935 -934 0
-937 935 934 0
937 -935 934 0
937 935 -934 0
-938 -849 0
-938 -852 0
938 849 852 0
-939 937 0
-939 -938 0
939 -937 938 0
-940 938 -937 0
-940 -938 937 0
940 938 937 0
940 -938 -937 0
-941 24 0
-941 42 0
941 -24 -42 0
-942 940 0
-942 941 0
942 -940 -941 0
-943 -941 -940 0
-943 941 940 0
943 -941 940 0
943 941 -940 0
-944 -855 0
-944 -858 0
944 855 858 0
-945 943 0
-945 -944 0
945 -943 944 0
-946 944 -943 0
-946 -944 943 0
946 944 943 0
946 -944 -943 0
-947 25 0
-947 41 0
947 -25 -41 0
-948 946 0
-948 947 0
948 -946 -947 0
-949 -947 -946 0
-949 947 946 0
949 -947 946 0
949 947 -946 0
-950 -861 0
-950 -864 0
950 861 864 0
-951 949 0
-951 -950 0
951 -949 950 0
-952 950 -949 0
-952 -950 949 0
952 950 949 0
952 -950 -949 0
-953 26 0
-953 40 0
953 -26 -40 0
-954 952 0
-954 953 0
954 -952 -953 0
-955 -953 -952 0
-955 953 952 0
955 -953 952 0
955 953 -952 0
-956 -867 0
-956 -870 0
956 867 870 0
-957 955 0
-957 -956 0
957 -955 956 0
-958 956 -955 0
-958 -956 955 0
958 956 955 0
958 -956 -955 0
-959 27 0
-959 39 0
959 -27 -39 0
-960 958 0
-960 959 0
960 -958 -959 0
-961 -959 -958 0
-961 959 958 0
961 -959 958 0
961 959 -958 0
-962 -873 0
-962 -876 0
962 873 876 0
-963 961 0
-963 -962 0
963 -961 962 0
-964 962 -961 0
-964 -962 961 0
964 962 961 0
964 -962 -961 0
-965 28 0
-965 38 0
965 -28 -38 0
-966 964 0
-966 965 0
966 -964 -965 0
-967 -965 -964 0
-967 965 964 0
967 -965 964 0
967 965 -964 0
-968 -879 0
-968 -882 0
968 879 882 0
-969 967 0
-969 -968 0
969 -967 968 0
-970 968 -967 0
-970 -968 967 0
970 968 967 0
970 -968 -967 0
-971 29 0
-971 37 0
971 -29 -37 0
-972 970 0
-972 971 0
972 -970 -971 0
-973 -971 -970 0
-973 971 970 0
973 -971 970 0
973 971 -970 0
-974 -885 0
-974 -887 0
974 885 887 0
-975 973 0
-975 -974 0
975 -973 974 0
-976 974 -973 0
-976 -974 973 0
976 974 973 0
976 -974 -973 0
-977 30 0
-977 36 0
977 -30 -36 0
-978 976 0
-978 977 0
978 -976 -977 0
-979 -977 -976 0
-979 977 976 0
979 -977 976 0
979 977 -976 0
-980 890 0
-980 979 0
980 -890 -979 0
-981 -979 -890 0
-981 979 890 0
981 -979 890 0
981 979 -890 0
-982 35 0
-982 46 0
982 -35 -46 0
-983 981 0
-983 982 0
983 -981 -982 0
-984 -982 -981 0
-984 982 981 0
984 -982 981 0
984 982 -981 0
-985 12 0
-985 984 0
985 -12 -984 0
-986 -985 -921 0
-986 985 921 0
986 -985 921 0
986 985 -921 0
-987 918 -897 0
-987 -918 897 0
987 918 897 0
987 -918 -897 0
-988 13 0
-988 984 0
988 -13 -984 0
-989 987 0
-989 988 0
989 -987 -988 0
-990 -988 -987 0
-990 988 987 0
990 -988 987 0
990 988 -987 0
-991 916 -901 0
-991 -916 901 0
991 916 901 0
991 -916 -901 0
-992 14 0
-992 984 0
992 -14 -984 0
-993 991 0
-993 992 0
993 -991 -992 0
-994 -992 -991 0
-994 992 991 0
994 -992 991 0
994 992 -991 0
-995 914 -905 0
-995 -914 905 0
995 914 905 0
995 -914 -905 0
-996 15 0
-996 984 0
996 -15 -984 0
-997 995 0
-997 996 0
997 -995 -996 0
-998 -996 -995 0
-998 996 995 0
998 -996 995 0
998 996 -995 0
-999 -912 -909 0
-999 912 909 0
999 -912 909 0
999 912 -909 0
-1000 48 0
-1000 984 0
1000 -48 -984 0
-1001 999 0
-1001 1000 0
1001 -999 -1000 0
-1002 998 0
-1002 1001 0
1002 -998 -1001 0
-1003 -997 0
-1003 -1002 0
1003 997 1002 0
-1004 994 0
-1004 -1003 0
1004 -994 1003 0
-1005 -993 0
-1005 -1004 0
1005 993 1004 0
-1006 990 0
-1006 -1005 0
1006 -990 1005 0
-1007 -989 0
-1007 -1006 0
1007 989 1006 0
-1008 1007 -986 0
-1008 -1007 986 0
1008 1007 986 0
1008 -1007 -986 0
-1009 19 0
-1009 47 0
1009 -19 -47 0
-1010 20 0
-1010 45 0
1010 -20 -45 0
-1011 1009 0
-1011 1010 0
1011 -1009 -1010 0
-1012 -1010 -1009 0
-1012 1010 1009 0
1012 -1010 1009 0
1012 1010 -1009 0
-1013 -924 0
-1013 -927 0
1013 924 927 0
-1014 1012 0
-1014 -1013 0
1014 -1012 1013 0
-1015 1013 -1012 0
-1015 -1013 1012 0
1015 1013 1012 0
1015 -1013 -1012 0
-1016 21 0
-1016 44 0
1016 -21 -44 0
-1017 1015 0
-1017 1016 0
1017 -1015 -1016 0
-1018 -1016 -1015 0
-1018 1016 1015 0
1018 -1016 1015 0
1018 1016 -1015 0
-1019 -930 0
-1019 -933 0
1019 930 933 0
-1020 1018 0
-1020 -1019 0
1020 -1018 1019 0
-1021 1019 -1018 0
-1021 -1019 1018 0
1021 1019 1018 0
1021 -1019 -1018 0
-1022 22 0
-1022 43 0
1022 -22 -43 0
-1023 1021 0
-1023 1022 0
1023 -1021 -1022 0
-1024 -1022 -1021 0
-1024 1022 1021 0
1024 -1022 1021 0
1024 1022 -1021 0
-1025 -936 0
-1025 -939 0
1025 936 939 0
-1026 1024 0
-1026 -1025 0
1026 -1024 1025 0
-1027 1025 -1024 0
-1027 -1025 1024 0
1027 1025 1024 0
1027 -1025 -1024 0
-1028 23 0
-1028 42 0
1028 -23 -42 0
-1029 1027 0
-1029 1028 0
1029 -1027 -1028 0
-1030 -1028 -1027 0
-1030 1028 1027 0
1030 -1028 1027 0
1030 1028 -1027 0
-1031 -942 0
-1031 -945 0
1031 942 945 0
-1032 1030 0
-1032 -1031 0
1032 -1030 1031 0
-1033 1031 -1030 0
-1033 -1031 1030 0
1033 1031 1030 0
1033 -1031 -1030 0
-1034 24 0
-1034 41 0
1034 -24 -41 0
-1035 1033 0
-1035 1034 0
1035 -1033 -1034 0
-1036 -1034 -1033 0
-1036 1034 1033 0
1036 -1034 1033 0
1036 1034 -1033 0
-1037 -948 0
-1037 -951 0
1037 948 951 0
-1038 1036 0
-1038 -1037 0
1038 -1036 1037 0
-1039 1037 -1036 0
-1039 -1037 1036 0
1039 1037 1036 0
1039 -1037 -1036 0
-1040 25 0
-1040 40 0
1040 -25 -40 0
-1041 1039 0
-1041 1040 0
1041 -1039 -1040 0
-1042 -1040 -1039 0
-1042 1040 1039 0
1042 -1040 1039 0
1042 1040 -1039 0
-1043 -954 0
-1043 -957 0
1043 954 957 0
-1044 1042 0
-1044 -1043 0
1044 -1042 1043 0
-1045 1043 -1042 0
-1045 -1043 1042 0
1045 1043 1042 0
1045 -1043 -1042 0
-1046 26 0
-1046 39 0
1046 -26 -39 0
-1047 1045 0
-1047 1046 0
1047 -1045 -1046 0
-1048 -1046 -1045 0
-1048 1046 1045 0
1048 -1046 1045 0
1048 1046 -1045 0
-1049 -960 0
-1049 -963 0
1049 960 963 0
-1050 1048 0
-1050 -1049 0
1050 -1048 1049 0
-1051 1049 -1048 0
-1051 -1049 1048 0
1051 1049 1048 0
1051 -1049 -1048 0
-1052 27 0
-1052 38 0
1052 -27 -38 0
-1053 1051 0
-1053 1052 0
1053 -1051 -1052 0
-1054 -1052 -1051 0
-1054 1052 1051 0
1054 -1052 1051 0
1054 1052 -1051 0
-1055 -966 0
-1055 -969 0
1055 966 969 0
-1056 1054 0
-1056 -1055 0
1056 -1054 1055 0
-1057 1055 -1054 0
-1057 -1055 1054 0
1057 1055 1054 0
1057 -1055 -1054 0
-1058 28 0
-1058 37 0
1058 -28 -37 0
-1059 1057 0
-1059 1058 0
1059 -1057 -1058 0
-1060 -1058 -1057 0
-1060 1058 1057 0
1060 -1058 1057 0
1060 1058 -1057 0
-1061 -972 0
-1061 -975 0
1061 972 975 0
-1062 1060 0
-1062 -1061 0
1062 -1060 1061 0
-1063 1061 -1060 0
-1063 -1061 1060 0
1063 1061 1060 0
1063 -1061 -1060 0
-1064 29 0
-1064 36 0
1064 -29 -36 0
-1065 1063 0
-1065 1064 0
1065 -1063 -1064 0
-1066 -1064 -1063 0
-1066 1064 1063 0
1066 -1064 1063 0
1066 1064 -1063 0
-1067 -978 0
-1067 -980 0
1067 978 980 0
-1068 1066 0
-1068 -1067 0
1068 -1066 1067 0
-1069 1067 -1066 0
-1069 -1067 1066 0
1069 1067 1066 0
1069 -1067 -1066 0
-1070 30 0
-1070 35 0
1070 -30 -35 0
-1071 1069 0
-1071 1070 0
1071 -1069 -1070 0
-1072 -1070 -1069 0
-1072 1070 1069 0
1072 -1070 1069 0
1072 1070 -1069 0
-1073 983 0
-1073 1072 0
1073 -983 -1072 0
-1074 -1072 -983 0
-1074 1072 983 0
1074 -1072 983 0
1074 1072 -983 0
-1075 34 0
-1075 46 0
1075 -34 -46 0
-1076 1074 0
-1076 1075 0
1076 -1074 -1075 0
-1077 -1075 -1074 0
-1077 1075 1074 0
1077 -1075 1074 0
1077 1075 -1074 0
-1078 13 0
-1078 1077 0
1078 -13 -1077 0
-1079 -1078 -1008 0
-1079 1078 1008 0
1079 -1078 1008 0
1079 1078 -1008 0
-1080 1005 -990 0
-1080 -1005 990 0
1080 1005 990 0
1080 -1005 -990 0
-1081 14 0
-1081 1077 0
1081 -14 -1077 0
-1082 1080 0
-1082 1081 0
1082 -1080 -1081 0
-1083 -1081 -1080 0
-1083 1081 1080 0
1083 -1081 1080 0
1083 1081 -1080 0
-1084 1003 -994 0
-1084 -1003 994 0
1084 1003 994 0
1084 -1003 -994 0
-1085 15 0
-1085 1077 0
1085 -15 -1077 0
-1086 1084 0
-1086 1085 0
1086 -1084 -1085 0
-1087 -1085 -1084 0
-1087 1085 1084 0
1087 -1085 1084 0
1087 1085 -1084 0
-1088 -1001 -998 0
-1088 1001 998 0
1088 -1001 998 0
1088 1001 -998 0
-1089 48 0
-1089 1077 0
1089 -48 -1077 0
-1090 1088 0
-1090 1089 0
1090 -1088 -1089 0
-1091 1087 0
-1091 1090 0
1091 -1087 -1090 0
-1092 -1086 0
-1092 -1091 0
1092 1086 1091 0
-1093 1083 0
-1093 -1092 0
1093 -1083 1092 0
-1094 -1082 0
-1094 -1093 0
1094 1082 1093 0
-1095 1094 -1079 0
-1095 -1094 1079 0
1095 1094 1079 0
1095 -1094 -1079 0
-1096 18 0
-1096 47 0
1096 -18 -47 0
-1097 19 0
-1097 45 0
1097 -19 -45 0
-1098 1096 0
-1098 1097 0
1098 -1096 -1097 0
-1099 -1097 -1096 0
-1099 1097 1096 0
1099 -1097 1096 0
1099 1097 -1096 0
-1100 -1011 0
-1100 -1014 0
1100 1011 1014 0
-1101 1099 0
-1101 -1100 0
1101 -1099 1100 0
-1102 1100 -1099 0
-1102 -1100 1099 0
1102 1100 1099 0
1102 -1100 -1099 0
-1103 20 0
-1103 44 0
1103 -20 -44 0
-1104 1102 0
-1104 1103 0
1104 -1102 -1103 0
-1105 -1103 -1102 0
-1105 1103 1102 0
1105 -1103 1102 0
1105 1103 -1102 0
-1106 -1017 0
-1106 -1020 0
1106 1017 1020 0
-1107 1105 0
-1107 -1106 0
1107 -1105 1106 0
-1108 1106 -1105 0
-1108 -1106 1105 0
1108 1106 1105 0
1108 -1106 -1105 0
-1109 21 0
-1109 43 0
1109 -21 -43 0
-1110 1108 0
-1110 1109 0
1110 -1108 -1109 0
-1111 -1109 -1108 0
-1111 1109 1108 0
1111 -1109 1108 0
1111 1109 -1108 0
-1112 -1023 0
-1112 -1026 0
1112 1023 1026 0
-1113 1111 0
-1113 -1112 0
1113 -1111 1112 0
-1114 1112 -1111 0
-1114 -1112 1111 0
1114 1112 1111 0
1114 -1112 -1111 0
-1115 22 0
-1115 42 0
1115 -22 -42 0
-1116 1114 0
-1116 1115 0
1116 -1114 -1115 0
-1117 -1115 -1114 0
-1117 1115 1114 0
1117 -1115 1114 0
1117 1115 -1114 0
-1118 -1029 0
-1118 -1032 0
1118 1029 1032 0
-1119 1117 0
-1119 -1118 0
1119 -1117 1118 0
-1120 1118 -1117 0
-1120 -1118 1117 0
1120 1118 1117 0
1120 -1118 -1117 0
-1121 23 0
-1121 41 0
1121 -23 -41 0
-1122 1120 0
-1122 1121 0
1122 -1120 -1121 0
-1123 -1121 -1120 0
-1123 1121 1120 0
1123 -1121 1120 0
1123 1121 -1120 0
-1124 -1035 0
-1124 -1038 0
1124 1035 1038 0
-1125 1123 0
-1125 -1124 0
1125 -1123 1124 0
-1126 1124 -1123 0
-1126 -1124 1123 0
1126 1124 1123 0
1126 -1124 -1123 0
-1127 24 0
-1127 40 0
1127 -24 -40 0
-1128 1126 0
-1128 1127 0
1128 -1126 -1127 0
-1129 -1127 -1126 0
-1129 1127 1126 0
1129 -1127 1126 0
1129 1127 -1126 0
-1130 -1041 0
-1130 -1044 0
1130 1041 1044 0
-1131 1129 0
-1131 -1130 0
1131 -1129 1130 0
-1132 1130 -1129 0
-1132 -1130 1129 0
1132 1130 1129 0
1132 -1130 -1129 0
-1133 25 0
-1133 39 0
1133 -25 -39 0
-1134 1132 0
-1134 1133 0
1134 -1132 -1133 0
-1135 -1133 -1132 0
-1135 1133 1132 0
1135 -1133 1132 0
1135 1133 -1132 0
-1136 -1047 0
-1136 -1050 0
1136 1047 1050 0
-1137 1135 0
-1137 -1136 0
1137 -1135 1136 0
-1138 1136 -1135 0
-1138 -1136 1135 0
1138 1136 1135 0
1138 -1136 -1135 0
-1139 26 0
-1139 38 0
1139 -26 -38 0
-1140 1138 0
-1140 1139 0
1140 -1138 -1139 0
-1141 -1139 -1138 0
-1141 1139 1138 0
1141 -1139 1138 0
1141 1139 -1138 0
-1142 -1053 0
-1142 -1056 0
1142 1053 1056 0
-1143 1141 0
-1143 -1142 0
1143 -1141 1142 0
-1144 1142 -1141 0
-1144 -1142 1141 0
1144 1142 1141 0
1144 -1142 -1141 0
-1145 27 0
-1145 37 0
1145 -27 -37 0
-1146 1144 0
-1146 1145 0
1146 -1144 -1145 0
-1147 -1145 -1144 0
-1147 1145 1144 0
1147 -1145 1144 0
1147 1145 -1144 0
-1148 -1059 0
-1148 -1062 0
1148 1059 1062 0
-1149 1147 0
-1149 -1148 0
1149 -1147 1148 0
-1150 1148 -1147 0
-1150 -1148 1147 0
1150 1148 1147 0
1150 -1148 -1147 0
-1151 28 0
-1151 36 0
1151 -28 -36 0
-1152 1150 0
-1152 1151 0
1152 -1150 -1151 0
-1153 -1151 -1150 0
-1153 1151 1150 0
1153 -1151 1150 0
1153 1151 -1150 0
-1154 -1065 0
-1154 -1068 0
1154 1065 1068 0
-1155 1153 0
-1155 -1154 0
1155 -1153 1154 0
-1156 1154 -1153 0
-1156 -1154 1153 0
1156 1154 1153 0
1156 -1154 -1153 0
-1157 29 0
-1157 35 0
1157 -29 -35 0
-1158 1156 0
-1158 1157 0
1158 -1156 -1157 0
-1159 -1157 -1156 0
-1159 1157 1156 0
1159 -1157 1156 0
1159 1157 -1156 0
-1160 -1071 0
-1160 -1073 0
1160 1071 1073 0
-1161 1159 0
-1161 -1160 0
1161 -1159 1160 0
-1162 1160 -1159 0
-1162 -1160 1159 0
1162 1160 1159 0
1162 -1160 -1159 0
-1163 30 0
-1163 34 0
1163 -30 -34 0
-1164 1162 0
-1164 1163 0
1164 -1162 -1163 0
-1165 -1163 -1162 0
-1165 1163 1162 0
1165 -1163 1162 0
1165 1163 -1162 0
-1166 1076 0
-1166 1165 0
1166 -1076 -1165 0
-1167 -1165 -1076 0
-1167 1165 1076 0
1167 -1165 1076 0
1167 1165 -1076 0
-1168 33 0
-1168 46 0
1168 -33 -46 0
-1169 1167 0
-1169 1168 0
1169 -1167 -1168 0
-1170 -1168 -1167 0
-1170 1168 1167 0
1170 -1168 1167 0
1170 1168 -1167 0
-1171 14 0
-1171 1170 0
1171 -14 -1170 0
-1172 -1171 -1095 0
-1172 1171 1095 0
1172 -1171 1095 0
1172 1171 -1095 0
-1173 1092 -1083 0
-1173 -1092 1083 0
1173 1092 1083 0
1173 -1092 -1083 0
-1174 15 0
-1174 1170 0
1174 -15 -1170 0
-1175 1173 0
-1175 1174 0
1175 -1173 -1174 0
-1176 -1174 -1173 0
-1176 1174 1173 0
1176 -1174 1173 0
1176 1174 -1173 0
-1177 -1090 -1087 0
-1177 1090 1087 0
1177 -1090 1087 0
1177 1090 -1087 0
-1178 48 0
-1178 1170 0
1178 -48 -1170 0
-1179 1177 0
-1179 1178 0
1179 -1177 -1178 0
-1180 1176 0
-1180 1179 0
1180 -1176 -1179 0
-1181 -1175 0
-1181 -1180 0
1181 1175 1180 0
-1182 1181 -1172 0
-1182 -1181 1172 0
1182 1181 1172 0
1182 -1181 -1172 0
-1183 17 0
-1183 47 0
1183 -17 -47 0
-1184 18 0
-1184 45 0
1184 -18 -45 0
-1185 1183 0
-1185 1184 0
1185 -1183 -1184 0
-1186 -1184 -1183 0
-1186 1184 1183 0
1186 -1184 1183 0
1186 1184 -1183 0
-1187 -1098 0
-1187 -1101 0
1187 1098 1101 0
-1188 1186 0
-1188 -1187 0
1188 -1186 1187 0
-1189 1187 -1186 0
-1189 -1187 1186 0
1189 1187 1186 0
1189 -1187 -1186 0
-1190 19 0
-1190 44 0
1190 -19 -44 0
-1191 1189 0
-1191 1190 0
1191 -1189 -1190 0
-1192 -1190 -1189 0
-1192 1190 1189 0
1192 -1190 1189 0
1192 1190 -1189 0
-1193 -1104 0
-1193 -1107 0
1193 1104 1107 0
-1194 1192 0
-1194 -1193 0
1194 -1192 1193 0
-1195 1193 -1192 0
-1195 -1193 1192 0
1195 1193 1192 0
1195 -1193 -1192 0
-1196 20 0
-1196 43 0
1196 -20 -43 0
-1197 1195 0
-1197 1196 0
1197 -1195 -1196 0
-1198 -1196 -1195 0
-1198 1196 1195 0
1198 -1196 1195 0
1198 1196 -1195 0
-1199 -1110 0
-1199 -1113 0
1199 1110 1113 0
-1200 1198 0
-1200 -1199 0
1200 -1198 1199 0
-1201 1199 -1198 0
-1201 -1199 1198 0
1201 1199 1198 0
1201 -1199 -1198 0
-1202 21 0
-1202 42 0
1202 -21 -42 0
-1203 1201 0
-1203 1202 0
1203 -1201 -1202 0
-1204 -1202 -1201 0
-1204 1202 1201 0
1204 -1202 1201 0
1204 1202 -1201 0
-1205 -1116 0
-1205 -1119 0
1205 1116 1119 0
-1206 1204 0
-1206 -1205 0
1206 -1204 1205 0
-1207 1205 -1204 0
-1207 -1205 1204 0
1207 1205 1204 0
1207 -1205 -1204 0
-1208 22 0
-1208 41 0
1208 -22 -41 0
-1209 1207 0
-1209 1208 0
1209 -1207 -1208 0
-1210 -1208 -1207 0
-1210 1208 1207 0
1210 -1208 1207 0
1210 1208 -1207 0
-1211 -1122 0
-1211 -1125 0
1211 1122 1125 0
-1212 1210 0
-1212 -1211 0
1212 -1210 1211 0
-1213 1211 -1210 0
-1213 -1211 1210 0
1213 1211 1210 0
1213 -1211 -1210 0
-1214 23 0
-1214 40 0
1214 -23 -40 0
-1215 1213 0
-1215 1214 0
1215 -1213 -1214 0
-1216 -1214 -1213 0
-1216 1214 1213 0
1216 -1214 1213 0
1216 1214 -1213 0
-1217 -1128 0
-1217 -1131 0
1217 1128 1131 0
-1218 1216 0
-1218 -1217 0
1218 -1216 1217 0
-1219 1217 -1216 0
-1219 -1217 1216 0
1219 1217 1216 0
1219 -1217 -1216 0
-1220 24 0
-1220 39 0
1220 -24 -39 0
-1221 1219 0
-1221 1220 0
1221 -1219 -1220 0
-1222 -1220 -1219 0
-1222 1220 1219 0
1222 -1220 1219 0
1222 1220 -1219 0
-1223 -1134 0
-1223 -1137 0
1223 1134 1137 0
-1224 1222 0
-1224 -1223 0
1224 -1222 1223 0
-1225 1223 -1222 0
-1225 -1223 1222 0
1225 1223 1222 0
1225 -1223 -1222 0
-1226 25 0
-1226 38 0
1226 -25 -38 0
-1227 1225 0
-1227 1226 0
1227 -1225 -1226 0
-1228 -1226 -1225 0
-1228 1226 1225 0
1228 -1226 1225 0
1228 1226 -1225 0
-1229 -1140 0
-1229 -1143 0
1229 1140 1143 0
-1230 1228 0
-1230 -1229 0
1230 -1228 1229 0
-1231 1229 -1228 0
-1231 -1229 1228 0
1231 1229 1228 0
1231 -1229 -1228 0
-1232 26 0
-1232 37 0
1232 -26 -37 0
-1233 1231 0
-1233 1232 0
1233 -1231 -1232 0
-1234 -1232 -1231 0
-1234 1232 1231 0
1234 -1232 1231 0
1234 1232 -1231 0
-1235 -1146 0
-1235 -1149 0
1235 1146 1149 0
-1236 1234 0
-1236 -1235 0
1236 -1234 1235 0
-1237 1235 -1234 0
-1237 -1235 1234 0
1237 1235 1234 0
1237 -1235 -1234 0
-1238 27 0
-1238 36 0
1238 -27 -36 0
-1239 1237 0
-1239 1238 0
1239 -1237 -1238 0
-1240 -1238 -1237 0
-1240 1238 1237 0
1240 -1238 1237 0
1240 1238 -1237 0
-1241 -1152 0
-1241 -1155 0
1241 1152 1155 0
-1242 1240 0
-1242 -1241 0
1242 -1240 1241 0
-1243 1241 -1240 0
-1243 -1241 1240 0
1243 1241 1240 0
1243 -1241 -1240 0
-1244 28 0
-1244 35 0
1244 -28 -35 0
-1245 1243 0
-1245 1244 0
1245 -1243 -1244 0
-1246 -1244 -1243 0
-1246 1244 1243 0
1246 -1244 1243 0
1246 1244 -1243 0
-1247 -1158 0
-1247 -1161 0
1247 1158 1161 0
-1248 1246 0
-1248 -1247 0
1248 -1246 1247 0
-1249 1247 -1246 0
-1249 -1247 1246 0
1249 1247 1246 0
1249 -1247 -1246 0
-1250 29 0
-1250 34 0
1250 -29 -34 0
-1251 1249 0
-1251 1250 0
1251 -1249 -1250 0
-1252 -1250 -1249 0
-1252 1250 1249 0
1252 -1250 1249 0
1252 1250 -1249 0
-1253 -1164 0
-1253 -1166 0
1253 1164 1166 0
-1254 1252 0
-1254 -1253 0
1254 -1252 1253 0
-1255 1253 -1252 0
-1255 -1253 1252 0
1255 1253 1252 0
1255 -1253 -1252 0
-1256 30 0
-1256 33 0
1256 -30 -33 0
-1257 1255 0
-1257 1256 0
1257 -1255 -1256 0
-1258 -1256 -1255 0
-1258 1256 1255 0
1258 -1256 1255 0
1258 1256 -1255 0
-1259 1169 0
-1259 1258 0
1259 -1169 -1258 0
-1260 -1258 -1169 0
-1260 1258 1169 0
1260 -1258 1169 0
1260 1258 -1169 0
-1261 32 0
-1261 46 0
1261 -32 -46 0
-1262 1260 0
-1262 1261 0
1262 -1260 -1261 0
-1263 -1261 -1260 0
-1263 1261 1260 0
1263 -1261 1260 0
1263 1261 -1260 0
-1264 15 0
-1264 1263 0
1264 -15 -1263 0
-1265 -1264 -1182 0
-1265 1264 1182 0
1265 -1264 1182 0
1265 1264 -1182 0
-1266 -1179 -1176 0
-1266 1179 1176 0
1266 -1179 1176 0
1266 1179 -1176 0
-1267 48 0
-1267 1263 0
1267 -48 -1263 0
-1268 1266 0
-1268 1267 0
1268 -1266 -1267 0
-1269 -1268 -1265 0
-1269 1268 1265 0
1269 -1268 1265 0
1269 1268 -1265 0
-1270 16 0
-1270 47 0
1270 -16 -47 0
-1271 17 0
-1271 45 0
1271 -17 -45 0
-1272 -1271 -1270 0
-1272 1271 1270 0
1272 -1271 1270 0
1272 1271 -1270 0
-1273 -1185 0
-1273 -1188 0
1273 1185 1188 0
-1274 1273 -1272 0
-1274 -1273 1272 0
1274 1273 1272 0
1274 -1273 -1272 0
-1275 18 0
-1275 44 0
1275 -18 -44 0
-1276 -1275 -1274 0
-1276 1275 1274 0
1276 -1275 1274 0
1276 1275 -1274 0
-1277 -1191 0
-1277 -1194 0
1277 1191 1194 0
-1278 1277 -1276 0
-1278 -1277 1276 0
1278 1277 1276 0
1278 -1277 -1276 0
-1279 19 0
-1279 43 0
1279 -19 -43 0
-1280 -1279 -1278 0
-1280 1279 1278 0
1280 -1279 1278 0
1280 1279 -1278 0
-1281 -1197 0
-1281 -1200 0
1281 1197 1200 0
-1282 1281 -1280 0
-1282 -1281 1280 0
1282 1281 1280 0
1282 -1281 -1280 0
-1283 20 0
-1283 42 0
1283 -20 -42 0
-1284 -1283 -1282 0
-1284 1283 1282 0
1284 -1283 1282 0
1284 1283 -1282 0
-1285 -1203 0
-1285 -1206 0
1285 1203 1206 0
-1286 1285 -1284 0
-1286 -1285 1284 0
1286 1285 1284 0
1286 -1285 -1284 0
-1287 21 0
-1287 41 0
1287 -21 -41 0
-1288 -1287 -1286 0
-1288 1287 1286 0
1288 -1287 1286 0
1288 1287 -1286 0
-1289 -1209 0
-1289 -1212 0
1289 1209 1212 0
-1290 1289 -1288 0
-1290 -1289 1288 0
1290 1289 1288 0
1290 -1289 -1288 0
-1291 22 0
-1291 40 0
1291 -22 -40 0
-1292 -1291 -1290 0
-1292 1291 1290 0
1292 -1291 1290 0
1292 1291 -1290 0
-1293 -1215 0
-1293 -1218 0
1293 1215 1218 0
-1294 1293 -1292 0
-1294 -1293 1292 0
1294 1293 1292 0
1294 -1293 -1292 0
-1295 23 0
-1295 39 0
1295 -23 -39 0
-1296 -1295 -1294 0
-1296 1295 1294 0
1296 -1295 1294 0
1296 1295 -1294 0
-1297 -1221 0
-1297 -1224 0
1297 1221 1224 0
-1298 1297 -1296 0
-1298 -1297 1296 0
1298 1297 1296 0
1298 -1297 -1296 0
-1299 24 0
-1299 38 0
1299 -24 -38 0
-1300 -1299 -1298 0
-1300 1299 1298 0
1300 -1299 1298 0
1300 1299 -1298 0
-1301 -1227 0
-1301 -1230 0
1301 1227 1230 0
-1302 1301 -1300 0
-1302 -1301 1300 0
1302 1301 1300 0
1302 -1301 -1300 0
-1303 25 0
-1303 37 0
1303 -25 -37 0
-1304 -1303 -1302 0
-1304 1303 1302 0
1304 -1303 1302 0
1304 1303 -1302 0
-1305 -1233 0
-1305 -1236 0
1305 1233 1236 0
-1306 1305 -1304 0
-1306 -1305 1304 0
1306 1305 1304 0
1306 -1305 -1304 0
-1307 26 0
-1307 36 0
1307 -26 -36 0
-1308 -1307 -1306 0
-1308 1307 1306 0
1308 -1307 1306 0
1308 1307 -1306 0
-1309 -1239 0
-1309 -1242 0
1309 1239 1242 0
-1310 1309 -1308 0
-1310 -1309 1308 0
1310 1309 1308 0
1310 -1309 -1308 0
-1311 27 0
-1311 35 0
1311 -27 -35 0
-1312 -1311 -1310 0
-1312 1311 1310 0
1312 -1311 1310 0
1312 1311 -1310 0
-1313 -1245 0
-1313 -1248 0
1313 1245 1248 0
-1314 1313 -1312 0
-1314 -1313 1312 0
1314 1313 1312 0
1314 -1313 -1312 0
-1315 28 0
-1315 34 0
1315 -28 -34 0
-1316 -1315 -1314 0
-1316 1315 1314 0
1316 -1315 1314 0
1316 1315 -1314 0
-1317 -1251 0
-1317 -1254 0
1317 1251 1254 0
-1318 1317 -1316 0
-1318 -1317 1316 0
1318 1317 1316 0
1318 -1317 -1316 0
-1319 29 0
-1319 33 0
1319 -29 -33 0
-1320 -1319 -1318 0
-1320 1319 1318 0
1320 -1319 1318 0
1320 1319 -1318 0
-1321 -1257 0
-1321 -1259 0
1321 1257 1259 0
-1322 1321 -1320 0
-1322 -1321 1320 0
1322 1321 1320 0
1322 -1321 -1320 0
-1323 30 0
-1323 32 0
1323 -30 -32 0
-1324 -1323 -1322 0
-1324 1323 1322 0
1324 -1323 1322 0
1324 1323 -1322 0
-1325 -1324 -1262 0
-1325 1324 1262 0
1325 -1324 1262 0
1325 1324 -1262 0
-1326 31 0
-1326 46 0
1326 -31 -46 0
-1327 -1326 -1325 0
-1327 1326 1325 0
1327 -1326 1325 0
1327 1326 -1325 0
-1328 48 0
-1328 1327 0
1328 -48 -1327 0
-1329 -1328 -1269 0
-1329 1328 1269 0
1329 -1328 1269 0
1329 1328 -1269 0
-1330 1 0
-1330 46 0
1330 -1 -46 0
-1331 2 0
-1331 30 0
1331 -2 -30 0
-1332 -1331 -1330 0
-1332 1331 1330 0
1332 -1331 1330 0
1332 1331 -1330 0
-1333 2 0
-1333 46 0
1333 -2 -46 0
-1334 3 0
-1334 30 0
1334 -3 -30 0
-1335 1333 0
-1335 1334 0
1335 -1333 -1334 0
-1336 -1334 -1333 0
-1336 1334 1333 0
1336 -1334 1333 0
1336 1334 -1333 0
-1337 3 0
-1337 46 0
1337 -3 -46 0
-1338 4 0
-1338 30 0
1338 -4 -30 0
-1339 1337 0
-1339 1338 0
1339 -1337 -1338 0
-1340 -1338 -1337 0
-1340 1338 1337 0
1340 -1338 1337 0
1340 1338 -1337 0
-1341 4 0
-1341 46 0
1341 -4 -46 0
-1342 5 0
-1342 30 0
1342 -5 -30 0
-1343 1341 0
-1343 1342 0
1343 -1341 -1342 0
-1344 -1342 -1341 0
-1344 1342 1341 0
1344 -1342 1341 0
1344 1342 -1341 0
-1345 5 0
-1345 46 0
1345 -5 -46 0
-1346 6 0
-1346 30 0
1346 -6 -30 0
-1347 1345 0
-1347 1346 0
1347 -1345 -1346 0
-1348 -1346 -1345 0
-1348 1346 1345 0
1348 -1346 1345 0
1348 1346 -1345 0
-1349 6 0
-1349 46 0
1349 -6 -46 0
-1350 7 0
-1350 30 0
1350 -7 -30 0
-1351 1349 0
-1351 1350 0
1351 -1349 -1350 0
-1352 -1350 -1349 0
-1352 1350 1349 0
1352 -1350 1349 0
1352 1350 -1349 0
-1353 7 0
-1353 46 0
1353 -7 -46 0
-1354 8 0
-1354 30 0
1354 -8 -30 0
-1355 1353 0
-1355 1354 0
1355 -1353 -1354 0
-1356 -1354 -1353 0
-1356 1354 1353 0
1356 -1354 1353 0
1356 1354 -1353 0
-1357 8 0
-1357 46 0
1357 -8 -46 0
-1358 9 0
-1358 30 0
1358 -9 -30 0
-1359 1357 0
-1359 1358 0
1359 -1357 -1358 0
-1360 -1358 -1357 0
-1360 1358 1357 0
1360 -1358 1357 0
1360 1358 -1357 0
-1361 9 0
-1361 46 0
1361 -9 -46 0
-1362 10 0
-1362 30 0
1362 -10 -30 0
-1363 1361 0
-1363 1362 0
1363 -1361 -1362 0
-1364 -1362 -1361 0
-1364 1362 1361 0
1364 -1362 1361 0
1364 1362 -1361 0
-1365 10 0
-1365 46 0
1365 -10 -46 0
-1366 11 0
-1366 30 0
1366 -11 -30 0
-1367 1365 0
-1367 1366 0
1367 -1365 -1366 0
-1368 -1366 -1365 0
-1368 1366 1365 0
1368 -1366 1365 0
1368 1366 -1365 0
-1369 11 0
-1369 46 0
1369 -11 -46 0
-1370 12 0
-1370 30 0
1370 -12 -30 0
-1371 1369 0
-1371 1370 0
1371 -1369 -1370 0
-1372 -1370 -1369 0
-1372 1370 1369 0
1372 -1370 1369 0
1372 1370 -1369 0
-1373 12 0
-1373 46 0
1373 -12 -46 0
-1374 13 0
-1374 30 0
1374 -13 -30 0
-1375 1373 0
-1375 1374 0
1375 -1373 -1374 0
-1376 -1374 -1373 0
-1376 1374 1373 0
1376 -1374 1373 0
1376 1374 -1373 0
-1377 13 0
-1377 46 0
1377 -13 -46 0
-1378 14 0
-1378 30 0
1378 -14 -30 0
-1379 1377 0
-1379 1378 0
1379 -1377 -1378 0
-1380 -1378 -1377 0
-1380 1378 1377 0
1380 -1378 1377 0
1380 1378 -1377 0
-1381 14 0
-1381 46 0
1381 -14 -46 0
-1382 15 0
-1382 30 0
1382 -15 -30 0
-1383 1381 0
-1383 1382 0
1383 -1381 -1382 0
-1384 -1382 -1381 0
-1384 1382 1381 0
1384 -1382 1381 0
1384 1382 -1381 0
-1385 15 0
-1385 46 0
1385 -15 -46 0
-1386 30 0
-1386 48 0
1386 -30 -48 0
-1387 1385 0
-1387 1386 0
1387 -1385 -1386 0
-1388 1384 0
-1388 1387 0
1388 -1384 -1387 0
-1389 -1383 0
-1389 -1388 0
1389 1383 1388 0
-1390 1380 0
-1390 -1389 0
1390 -1380 1389 0
-1391 -1379 0
-1391 -1390 0
1391 1379 1390 0
-1392 1376 0
-1392 -1391 0
1392 -1376 1391 0
-1393 -1375 0
-1393 -1392 0
1393 1375 1392 0
-1394 1372 0
-1394 -1393 0
1394 -1372 1393 0
-1395 -1371 0
-1395 -1394 0
1395 1371 1394 0
-1396 1368 0
-1396 -1395 0
1396 -1368 1395 0
-1397 -1367 0
-1397 -1396 0
1397 1367 1396 0
-1398 1364 0
-1398 -1397 0
1398 -1364 1397 0
-1399 -1363 0
-1399 -1398 0
1399 1363 1398 0
-1400 1360 0
-1400 -1399 0
1400 -1360 1399 0
-1401 -1359 0
-1401 -1400 0
1401 1359 1400 0
-1402 1356 0
-1402 -1401 0
1402 -1356 1401 0
-1403 -1355 0
-1403 -1402 0
1403 1355 1402 0
-1404 1352 0
-1404 -1403 0
1404 -1352 1403 0
-1405 -1351 0
-1405 -1404 0
1405 1351 1404 0
-1406 1348 0
-1406 -1405 0
1406 -1348 1405 0
-1407 -1347 0
-1407 -1406 0
1407 1347 1406 0
-1408 1344 0
-1408 -1407 0
1408 -1344 1407 0
-1409 -1343 0
-1409 -1408 0
1409 1343 1408 0
-1410 1340 0
-1410 -1409 0
1410 -1340 1409 0
-1411 -1339 0
-1411 -1410 0
1411 1339 1410 0
-1412 1336 0
-1412 -1411 0
1412 -1336 1411 0
-1413 -1335 0
-1413 -1412 0
1413 1335 1412 0
-1414 1413 -1332 0
-1414 -1413 1332 0
1414 1413 1332 0
1414 -1413 -1332 0
-1415 3 0
-1415 29 0
1415 -3 -29 0
-1416 -1415 -1414 0
-1416 1415 1414 0
1416 -1415 1414 0
1416 1415 -1414 0
-1417 1411 -1336 0
-1417 -1411 1336 0
1417 1411 1336 0
1417 -1411 -1336 0
-1418 4 0
-1418 29 0
1418 -4 -29 0
-1419 1417 0
-1419 1418 0
1419 -1417 -1418 0
-1420 -1418 -1417 0
-1420 1418 1417 0
1420 -1418 1417 0
1420 1418 -1417 0
-1421 1409 -1340 0
-1421 -1409 1340 0
1421 1409 1340 0
1421 -1409 -1340 0
-1422 5 0
-1422 29 0
1422 -5 -29 0
-1423 1421 0
-1423 1422 0
1423 -1421 -1422 0
-1424 -1422 -1421 0
-1424 1422 1421 0
1424 -1422 1421 0
1424 1422 -1421 0
-1425 1407 -1344 0
-1425 -1407 1344 0
1425 1407 1344 0
1425 -1407 -1344 0
-1426 6 0
-1426 29 0
1426 -6 -29 0
-1427 1425 0
-1427 1426 0
1427 -1425 -1426 0
-1428 -1426 -1425 0
-1428 1426 1425 0
1428 -1426 1425 0
1428 1426 -1425 0
-1429 1405 -1348 0
-1429 -1405 1348 0
1429 1405 1348 0
1429 -1405 -1348 0
-1430 7 0
-1430 29 0
1430 -7 -29 0
-1431 1429 0
-1431 1430 0
1431 -1429 -1430 0
-1432 -1430 -1429 0
-1432 1430 1429 0
1432 -1430 1429 0
1432 1430 -1429 0
-1433 1403 -1352 0
-1433 -1403 1352 0
1433 1403 1352 0
1433 -1403 -1352 0
-1434 8 0
-1434 29 0
1434 -8 -29 0
-1435 1433 0
-1435 1434 0
1435 -1433 -1434 0
-1436 -1434 -1433 0
-1436 1434 1433 0
1436 -1434 1433 0
1436 1434 -1433 0
-1437 1401 -1356 0
-1437 -1401 1356 0
1437 1401 1356 0
1437 -1401 -1356 0
-1438 9 0
-1438 29 0
1438 -9 -29 0
-1439 1437 0
-1439 1438 0
1439 -1437 -1438 0
-1440 -1438 -1437 0
-1440 1438 1437 0
1440 -1438 1437 0
1440 1438 -1437 0
-1441 1399 -1360 0
-1441 -1399 1360 0
1441 1399 1360 0
1441 -1399 -1360 0
-1442 10 0
-1442 29 0
1442 -10 -29 0
-1443 1441 0
-1443 1442 0
1443 -1441 -1442 0
-1444 -1442 -1441 0
-1444 1442 1441 0
1444 -1442 1441 0
1444 1442 -1441 0
-1445 1397 -1364 0
-1445 -1397 1364 0
1445 1397 1364 0
1445 -1397 -1364 0
-1446 11 0
-1446 29 0
1446 -11 -29 0
-1447 1445 0
-1447 1446 0
1447 -1445 -1446 0
-1448 -1446 -1445 0
-1448 1446 1445 0
1448 -1446 1445 0
1448 1446 -1445 0
-1449 1395 -1368 0
-1449 -1395 1368 0
1449 1395 1368 0
1449 -1395 -1368 0
-1450 12 0
-1450 29 0
1450 -12 -29 0
-1451 1449 0
-1451 1450 0
1451 -1449 -1450 0
-1452 -1450 -1449 0
-1452 1450 1449 0
1452 -1450 1449 0
1452 1450 -1449 0
-1453 1393 -1372 0
-1453 -1393 1372 0
1453 1393 1372 0
1453 -1393 -1372 0
-1454 13 0
-1454 29 0
1454 -13 -29 0
-1455 1453 0
-1455 1454 0
1455 -1453 -1454 0
-1456 -1454 -1453 0
-1456 1454 1453 0
1456 -1454 1453 0
1456 1454 -1453 0
-1457 1391 -1376 0
-1457 -1391 1376 0
1457 1391 1376 0
1457 -1391 -1376 0
-1458 14 0
-1458 29 0
1458 -14 -29 0
-1459 1457 0
-1459 1458 0
1459 -1457 -1458 0
-1460 -1458 -1457 0
-1460 1458 1457 0
1460 -1458 1457 0
1460 1458 -1457 0
-1461 1389 -1380 0
-1461 -1389 1380 0
1461 1389 1380 0
1461 -1389 -1380 0
-1462 15 0
-1462 29 0
1462 -15 -29 0
-1463 1461 0
-1463 1462 0
1463 -1461 -1462 0
-1464 -1462 -1461 0
-1464 1462 1461 0
1464 -1462 1461 0
1464 1462 -1461 0
-1465 -1387 -1384 0
-1465 1387 1384 0
1465 -1387 1384 0
1465 1387 -1384 0
-1466 29 0
-1466 48 0
1466 -29 -48 0
-1467 1465 0
-1467 1466 0
1467 -1465 -1466 0
-1468 1464 0
-1468 1467 0
1468 -1464 -1467 0
-1469 -1463 0
-1469 -1468 0
1469 1463 1468 0
-1470 1460 0
-1470 -1469 0
1470 -1460 1469 0
-1471 -1459 0
-1471 -1470 0
1471 1459 1470 0
-1472 1456 0
-1472 -1471 0
1472 -1456 1471 0
-1473 -1455 0
-1473 -1472 0
1473 1455 1472 0
-1474 1452 0
-1474 -1473 0
1474 -1452 1473 0
-1475 -1451 0
-1475 -1474 0
1475 1451 1474 0
-1476 1448 0
-1476 -1475 0
1476 -1448 1475 0
-1477 -1447 0
-1477 -1476 0
1477 1447 1476 0
-1478 1444 0
-1478 -1477 0
1478 -1444 1477 0
-1479 -1443 0
-1479 -1478 0
1479 1443 1478 0
-1480 1440 0
-1480 -1479 0
1480 -1440 1479 0
-1481 -1439 0
-1481 -1480 0
1481 1439 1480 0
-1482 1436 0
-1482 -1481 0
1482 -1436 1481 0
-1483 -1435 0
-1483 -1482 0
1483 1435 1482 0
-1484 1432 0
-1484 -1483 0
1484 -1432 1483 0
-1485 -1431 0
-1485 -1484 0
1485 1431 1484 0
-1486 1428 0
-1486 -1485 0
1486 -1428 1485 0
-1487 -1427 0
-1487 -1486 0
1487 1427 1486 0
-1488 1424 0
-1488 -1487 0
1488 -1424 1487 0
-1489 -1423 0
-1489 -1488 0
1489 1423 1488 0
-1490 1420 0
-1490 -1489 0
1490 -1420 1489 0
-1491 -1419 0
-1491 -1490 0
1491 1419 1490 0
-1492 1491 -1416 0
-1492 -1491 1416 0
1492 1491 1416 0
1492 -1491 -1416 0
-1493 4 0
-1493 28 0
1493 -4 -28 0
-1494 -1493 -1492 0
-1494 1493 1492 0
1494 -1493 1492 0
1494 1493 -1492 0
-1495 1489 -1420 0
-1495 -1489 1420 0
1495 1489 1420 0
1495 -1489 -1420 0
-1496 5 0
-1496 28 0
1496 -5 -28 0
-1497 1495 0
-1497 1496 0
1497 -1495 -1496 0
-1498 -1496 -1495 0
-1498 1496 1495 0
1498 -1496 1495 0
1498 1496 -1495 0
-1499 1487 -1424 0
-1499 -1487 1424 0
1499 1487 1424 0
1499 -1487 -1424 0
-1500 6 0
-1500 28 0
1500 -6 -28 0
-1501 1499 0
-1501 1500 0
1501 -1499 -1500 0
-1502 -1500 -1499 0
-1502 1500 1499 0
1502 -1500 1499 0
1502 1500 -1499 0
-1503 1485 -1428 0
-1503 -1485 1428 0
1503 1485 1428 0
1503 -1485 -1428 0
-1504 7 0
-1504 28 0
1504 -7 -28 0
-1505 1503 0
-1505 1504 0
1505 -1503 -1504 0
-1506 -1504 -1503 0
-1506 1504 1503 0
1506 -1504 1503 0
1506 1504 -1503 0
-1507 1483 -1432 0
-1507 -1483 1432 0
1507 1483 1432 0
1507 -1483 -1432 0
-1508 8 0
-1508 28 0
1508 -8 -28 0
-1509 1507 0
-1509 1508 0
1509 -1507 -1508 0
-1510 -1508 -1507 0
-1510 1508 1507 0
1510 -1508 1507 0
1510 1508 -1507 0
-1511 1481 -1436 0
-1511 -1481 1436 0
1511 1481 1436 0
1511 -1481 -1436 0
-1512 9 0
-1512 28 0
1512 -9 -28 0
-1513 1511 0
-1513 1512 0
1513 -1511 -1512 0
-1514 -1512 -1511 0
-1514 1512 1511 0
1514 -1512 1511 0
1514 1512 -1511 0
-1515 1479 -1440 0
-1515 -1479 1440 0
1515 1479 1440 0
1515 -1479 -1440 0
-1516 10 0
-1516 28 0
1516 -10 -28 0
-1517 1515 0
-1517 1516 0
1517 -1515 -1516 0
-1518 -1516 -1515 0
-1518 1516 1515 0
1518 -1516 1515 0
1518 1516 -1515 0
-1519 1477 -1444 0
-1519 -1477 1444 0
1519 1477 1444 0
1519 -1477 -1444 0
-1520 11 0
-1520 28 0
1520 -11 -28 0
-1521 1519 0
-1521 1520 0
1521 -1519 -1520 0
-1522 -1520 -1519 0
-1522 1520 1519 0
1522 -1520 1519 0
1522 1520 -1519 0
-1523 1475 -1448 0
-1523 -1475 1448 0
1523 1475 1448 0
1523 -1475 -1448 0
-1524 12 0
-1524 28 0
1524 -12 -28 0
-1525 1523 0
-1525 1524 0
1525 -1523 -1524 0
-1526 -1524 -1523 0
-1526 1524 1523 0
1526 -1524 1523 0
1526 1524 -1523 0
-1527 1473 -1452 0
-1527 -1473 1452 0
1527 1473 1452 0
1527 -1473 -1452 0
-1528 13 0
-1528 28 0
1528 -13 -28 0
-1529 1527 0
-1529 1528 0
1529 -1527 -1528 0
-1530 -1528 -1527 0
-1530 1528 1527 0
1530 -1528 1527 0
1530 1528 -1527 0
-1531 1471 -1456 0
-1531 -1471 1456 0
1531 1471 1456 0
1531 -1471 -1456 0
-1532 14 0
-1532 28 0
1532 -14 -28 0
-1533 1531 0
-1533 1532 0
1533 -1531 -1532 0
-1534 -1532 -1531 0
-1534 1532 1531 0
1534 -1532 1531 0
1534 1532 -1531 0
-1535 1469 -1460 0
-1535 -1469 1460 0
1535 1469 1460 0
1535 -1469 -1460 0
-1536 15 0
-1536 28 0
1536 -15 -28 0
-1537 1535 0
-1537 1536 0
1537 -1535 -1536 0
-1538 -1536 -1535 0
-1538 1536 1535 0
1538 -1536 1535 0
1538 1536 -1535 0
-1539 -1467 -1464 0
-1539 1467 1464 0
1539 -1467 1464 0
1539 1467 -1464 0
-1540 28 0
-1540 48 0
1540 -28 -48 0
-1541 1539 0
-1541 1540 0
1541 -1539 -1540 0
-1542 1538 0
-1542 1541 0
1542 -1538 -1541 0
-1543 -1537 0
-1543 -1542 0
1543 1537 1542 0
-1544 1534 0
-1544 -1543 0
1544 -1534 1543 0
-1545 -1533 0
-1545 -1544 0
1545 1533 1544 0
-1546 1530 0
-1546 -1545 0
1546 -1530 1545 0
-1547 -1529 0
-1547 -1546 0
1547 1529 1546 0
-1548 1526 0
-1548 -1547 0
1548 -1526 1547 0
-1549 -1525 0
-1549 -1548 0
1549 1525 1548 0
-1550 1522 0
-1550 -1549 0
1550 -1522 1549 0
-1551 -1521 0
-1551 -1550 0
1551 1521 1550 0
-1552 1518 0
-1552 -1551 0
1552 -1518 1551 0
-1553 -1517 0
-1553 -1552 0
1553 1517 1552 0
-1554 1514 0
-1554 -1553 0
1554 -1514 1553 0
-1555 -1513 0
-1555 -1554 0
1555 1513 1554 0
-1556 1510 0
-1556 -1555 0
1556 -1510 1555 0
-1557 -1509 0
-1557 -1556 0
1557 1509 1556 0
-1558 1506 0
-1558 -1557 0
1558 -1506 1557 0
-1559 -1505 0
-1559 -1558 0
1559 1505 1558 0
-1560 1502 0
-1560 -1559 0
1560 -1502 1559 0
-1561 -1501 0
-1561 -1560 0
1561 1501 1560 0
-1562 1498 0
-1562 -1561 0
1562 -1498 1561 0
-1563 -1497 0
-1563 -1562 0
1563 1497 1562 0
-1564 1563 -1494 0
-1564 -1563 1494 0
1564 1563 1494 0
1564 -1563 -1494 0
-1565 5 0
-1565 27 0
1565 -5 -27 0
-1566 -1565 -1564 0
-1566 1565 1564 0
1566 -1565 1564 0
1566 1565 -1564 0
-1567 1561 -1498 0
-1567 -1561 1498 0
1567 1561 1498 0
1567 -1561 -1498 0
-1568 6 0
-1568 27 0
1568 -6 -27 0
-1569 1567 0
-1569 1568 0
1569 -1567 -1568 0
-1570 -1568 -1567 0
-1570 1568 1567 0
1570 -1568 1567 0
1570 1568 -1567 0
-1571 1559 -1502 0
-1571 -1559 1502 0
1571 1559 1502 0
1571 -1559 -1502 0
-1572 7 0
-1572 27 0
1572 -7 -27 0
-1573 1571 0
-1573 1572 0
1573 -1571 -1572 0
-1574 -1572 -1571 0
-1574 1572 1571 0
1574 -1572 1571 0
1574 1572 -1571 0
-1575 1557 -1506 0
-1575 -1557 1506 0
1575 1557 1506 0
1575 -1557 -1506 0
-1576 8 0
-1576 27 0
1576 -8 -27 0
-1577 1575 0
-1577 1576 0
1577 -1575 -1576 0
-1578 -1576 -1575 0
-1578 1576 1575 0
1578 -1576 1575 0
1578 1576 -1575 0
-1579 1555 -1510 0
-1579 -1555 1510 0
1579 1555 1510 0
1579 -1555 -1510 0
-1580 9 0
-1580 27 0
1580 -9 -27 0
-1581 1579 0
-1581 1580 0
1581 -1579 -1580 0
-1582 -1580 -1579 0
-1582 1580 1579 0
1582 -1580 1579 0
1582 1580 -1579 0
-1583 1553 -1514 0
-1583 -1553 1514 0
1583 1553 1514 0
1583 -1553 -1514 0
-1584 10 0
-1584 27 0
1584 -10 -27 0
-1585 1583 0
-1585 1584 0
1585 -1583 -1584 0
-1586 -1584 -1583 0
-1586 1584 1583 0
1586 -1584 1583 0
1586 1584 -1583 0
-1587 1551 -1518 0
-1587 -1551 1518 0
1587 1551 1518 0
1587 -1551 -1518 0
-1588 11 0
-1588 27 0
1588 -11 -27 0
-1589 1587 0
-1589 1588 0
1589 -1587 -1588 0
-1590 -1588 -1587 0
-1590 1588 1587 0
1590 -1588 1587 0
1590 1588 -1587 0
-1591 1549 -1522 0
-1591 -1549 1522 0
1591 1549 1522 0
1591 -1549 -1522 0
-1592 12 0
-1592 27 0
1592 -12 -27 0
-1593 1591 0
-1593 1592 0
1593 -1591 -1592 0
-1594 -1592 -1591 0
-1594 1592 1591 0
1594 -1592 1591 0
1594 1592 -1591 0
-1595 1547 -1526 0
-1595 -1547 1526 0
1595 1547 1526 0
1595 -1547 -1526 0
-1596 13 0
-1596 27 0
1596 -13 -27 0
-1597 1595 0
-1597 1596 0
1597 -1595 -1596 0
-1598 -1596 -1595 0
-1598 1596 1595 0
1598 -1596 1595 0
1598 1596 -1595 0
-1599 1545 -1530 0
-1599 -1545 1530 0
1599 1545 1530 0
1599 -1545 -1530 0
-1600 14 0
-1600 27 0
1600 -14 -27 0
-1601 1599 0
-1601 1600 0
1601 -1599 -1600 0
-1602 -1600 -1599 0
-1602 1600 1599 0
1602 -1600 1599 0
1602 1600 -1599 0
-1603 1543 -1534 0
-1603 -1543 1534 0
1603 1543 1534 0
1603 -1543 -1534 0
-1604 15 0
-1604 27 0
1604 -15 -27 0
-1605 1603 0
-1605 1604 0
1605 -1603 -1604 0
-1606 -1604 -1603 0
-1606 1604 1603 0
1606 -1604 1603 0
1606 1604 -1603 0
-1607 -1541 -1538 0
-1607 1541 1538 0
1607 -1541 1538 0
1607 1541 -1538 0
-1608 27 0
-1608 48 0
1608 -27 -48 0
-1609 1607 0
-1609 1608 0
1609 -1607 -1608 0
-1610 1606 0
-1610 1609 0
1610 -1606 -1609 0
-1611 -1605 0
-1611 -1610 0
1611 1605 1610 0
-1612 1602 0
-1612 -1611 0
1612 -1602 1611 0
-1613 -1601 0
-1613 -1612 0
1613 1601 1612 0
-1614 1598 0
-1614 -1613 0
1614 -1598 1613 0
-1615 -1597 0
-1615 -1614 0
1615 1597 1614 0
-1616 1594 0
-1616 -1615 0
1616 -1594 1615 0
-1617 -1593 0
-1617 -1616 0
1617 1593 1616 0
-1618 1590 0
-1618 -1617 0
1618 -1590 1617 0
-1619 -1589 0
-1619 -1618 0
1619 1589 1618 0
-1620 1586 0
-1620 -1619 0
1620 -1586 1619 0
-1621 -1585 0
-1621 -1620 0
1621 1585 1620 0
-1622 1582 0
-1622 -1621 0
1622 -1582 1621 0
-1623 -1581 0
-1623 -1622 0
1623 1581 1622 0
-1624 1578 0
-1624 -1623 0
1624 -1578 1623 0
-1625 -1577 0
-1625 -1624 0
1625 1577 1624 0
-1626 1574 0
-1626 -1625 0
1626 -1574 1625 0
-1627 -1573 0
-1627 -1626 0
1627 1573 1626 0
-1628 1570 0
-1628 -1627 0
1628 -1570 1627 0
-1629 -1569 0
-1629 -1628 0
1629 1569 1628 0
-1630 1629 -1566 0
-1630 -1629 1566 0
1630 1629 1566 0
1630 -1629 -1566 0
-1631 6 0
-1631 26 0
1631 -6 -26 0
-1632 -1631 -1630 0
-1632 1631 1630 0
1632 -1631 1630 0
1632 1631 -1630 0
-1633 1627 -1570 0
-1633 -1627 1570 0
1633 1627 1570 0
1633 -1627 -1570 0
-1634 7 0
-1634 26 0
1634 -7 -26 0
-1635 1633 0
-1635 1634 0
1635 -1633 -1634 0
-1636 -1634 -1633 0
-1636 1634 1633 0
1636 -1634 1633 0
1636 1634 -1633 0
-1637 1625 -1574 0
-1637 -1625 1574 0
1637 1625 1574 0
1637 -1625 -1574 0
-1638 8 0
-1638 26 0
1638 -8 -26 0
-1639 1637 0
-1639 1638 0
1639 -1637 -1638 0
-1640 -1638 -1637 0
-1640 1638 1637 0
1640 -1638 1637 0
1640 1638 -1637 0
-1641 1623 -1578 0
-1641 -1623 1578 0
1641 1623 1578 0
1641 -1623 -1578 0
-1642 9 0
-1642 26 0
1642 -9 -26 0
-1643 1641 0
-1643 1642 0
1643 -1641 -1642 0
-1644 -1642 -1641 0
-1644 1642 1641 0
1644 -1642 1641 0
1644 1642 -1641 0
-1645 1621 -1582 0
-1645 -1621 1582 0
1645 1621 1582 0
1645 -1621 -1582 0
-1646 10 0
-1646 26 0
1646 -10 -26 0
-1647 1645 0
-1647 1646 0
1647 -1645 -1646 0
-1648 -1646 -1645 0
-1648 1646 1645 0
1648 -1646 1645 0
1648 1646 -1645 0
-1649 1619 -1586 0
-1649 -1619 1586 0
1649 1619 1586 0
1649 -1619 -1586 0
-1650 11 0
-1650 26 0
1650 -11 -26 0
-1651 1649 0
-1651 1650 0
1651 -1649 -1650 0
-1652 -1650 -1649 0
-1652 1650 1649 0
1652 -1650 1649 0
1652 1650 -1649 0
-1653 1617 -1590 0
-1653 -1617 1590 0
1653 1617 1590 0
1653 -1617 -1590 0
-1654 12 0
-1654 26 0
1654 -12 -26 0
-1655 1653 0
-1655 1654 0
1655 -1653 -1654 0
-1656 -1654 -1653 0
-1656 1654 1653 0
1656 -1654 1653 0
1656 1654 -1653 0
-1657 1615 -1594 0
-1657 -1615 1594 0
1657 1615 1594 0
1657 -1615 -1594 0
-1658 13 0
-1658 26 0
1658 -13 -26 0
-1659 1657 0
-1659 1658 0
1659 -1657 -1658 0
-1660 -1658 -1657 0
-1660 1658 1657 0
1660 -1658 1657 0
1660 1658 -1657 0
-1661 1613 -1598 0
-1661 -1613 1598 0
1661 1613 1598 0
1661 -1613 -1598 0
-1662 14 0
-1662 26 0
1662 -14 -26 0
-1663 1661 0
-1663 1662 0
1663 -1661 -1662 0
-1664 -1662 -1661 0
-1664 1662 1661 0
1664 -1662 1661 0
1664 1662 -1661 0
-1665 1611 -1602 0
-1665 -1611 1602 0
1665 1611 1602 0
1665 -1611 -1602 0
-1666 15 0
-1666 26 0
1666 -15 -26 0
-1667 1665 0
-1667 1666 0
1667 -1665 -1666 0
-1668 -1666 -1665 0
-1668 1666 1665 0
1668 -1666 1665 0
1668 1666 -1665 0
-1669 -1609 -1606 0
-1669 1609 1606 0
1669 -1609 1606 0
1669 1609 -1606 0
-1670 26 0
-1670 48 0
1670 -26 -48 0
-1671 1669 0
-1671 1670 0
1671 -1669 -1670 0
-1672 1668 0
-1672 1671 0
1672 -1668 -1671 0
-1673 -1667 0
-1673 -1672 0
1673 1667 1672 0
-1674 1664 0
-1674 -1673 0
1674 -1664 1673 0
-1675 -1663 0
-1675 -1674 0
1675 1663 1674 0
-1676 1660 0
-1676 -1675 0
1676 -1660 1675 0
-1677 -1659 0
-1677 -1676 0
1677 1659 1676 0
-1678 1656 0
-1678 -1677 0
1678 -1656 1677 0
-1679 -1655 0
-1679 -1678 0
1679 1655 1678 0
-1680 1652 0
-1680 -1679 0
1680 -1652 1679 0
-1681 -1651 0
-1681 -1680 0
1681 1651 1680 0
-1682 1648 0
-1682 -1681 0
1682 -1648 1681 0
-1683 -1647 0
-1683 -1682 0
1683 1647 1682 0
-1684 1644 0
-1684 -1683 0
1684 -1644 1683 0
-1685 -1643 0
-1685 -1684 0
1685 1643 1684 0
-1686 1640 0
-1686 -1685 0
1686 -1640 1685 0
-1687 -1639 0
-1687 -1686 0
1687 1639 1686 0
-1688 1636 0
-1688 -1687 0
1688 -1636 1687 0
-1689 -1635 0
-1689 -1688 0
1689 1635 1688 0
-1690 1689 -1632 0
-1690 -1689 1632 0
1690 1689 1632 0
1690 -1689 -1632 0
-1691 7 0
-1691 25 0
1691 -7 -25 0
-1692 -1691 -1690 0
-1692 1691 1690 0
1692 -1691 1690 0
1692 1691 -1690 0
-1693 1687 -1636 0
-1693 -1687 1636 0
1693 1687 1636 0
1693 -1687 -1636 0
-1694 8 0
-1694 25 0
1694 -8 -25 0
-1695 1693 0
-1695 1694 0
1695 -1693 -1694 0
-1696 -1694 -1693 0
-1696 1694 1693 0
1696 -1694 1693 0
1696 1694 -1693 0
-1697 1685 -1640 0
-1697 -1685 1640 0
1697 1685 1640 0
1697 -1685 -1640 0
-1698 9 0
-1698 25 0
1698 -9 -25 0
-1699 1697 0
-1699 1698 0
1699 -1697 -1698 0
-1700 -1698 -1697 0
-1700 1698 1697 0
1700 -1698 1697 0
1700 1698 -1697 0
-1701 1683 -1644 0
-1701 -1683 1644 0
1701 1683 1644 0
1701 -1683 -1644 0
-1702 10 0
-1702 25 0
1702 -10 -25 0
-1703 1701 0
-1703 1702 0
1703 -1701 -1702 0
-1704 -1702 -1701 0
-1704 1702 1701 0
1704 -1702 1701 0
1704 1702 -1701 0
-1705 1681 -1648 0
-1705 -1681 1648 0
1705 1681 1648 0
1705 -1681 -1648 0
-1706 11 0
-1706 25 0
1706 -11 -25 0
-1707 1705 0
-1707 1706 0
1707 -1705 -1706 0
-1708 -1706 -1705 0
-1708 1706 1705 0
1708 -1706 1705 0
1708 1706 -1705 0
-1709 1679 -1652 0
-1709 -1679 1652 0
1709 1679 1652 0
1709 -1679 -1652 0
-1710 12 0
-1710 25 0
1710 -12 -25 0
-1711 1709 0
-1711 1710 0
1711 -1709 -1710 0
-1712 -1710 -1709 0
-1712 1710 1709 0
1712 -1710 1709 0
1712 1710 -1709 0
-1713 1677 -1656 0
-1713 -1677 1656 0
1713 1677 1656 0
1713 -1677 -1656 0
-1714 13 0
-1714 25 0
1714 -13 -25 0
-1715 1713 0
-1715 1714 0
1715 -1713 -1714 0
-1716 -1714 -1713 0
-1716 1714 1713 0
1716 -1714 1713 0
1716 1714 -1713 0
-1717 1675 -1660 0
-1717 -1675 1660 0
1717 1675 1660 0
1717 -1675 -1660 0
-1718 14 0
-1718 25 0
1718 -14 -25 0
-1719 1717 0
-1719 1718 0
1719 -1717 -1718 0
-1720 -1718 -1717 0
-1720 1718 1717 0
1720 -1718 1717 0
1720 1718 -1717 0
-1721 1673 -1664 0
-1721 -1673 1664 0
1721 1673 1664 0
1721 -1673 -1664 0
-1722 15 0
-1722 25 0
1722 -15 -25 0
-1723 1721 0
-1723 1722 0
1723 -1721 -1722 0
-1724 -1722 -1721 0
-1724 1722 1721 0
1724 -1722 1721 0
1724 1722 -1721 0
-1725 -1671 -1668 0
-1725 1671 1668 0
1725 -1671 1668 0
1725 1671 -1668 0
-1726 25 0
-1726 48 0
1726 -25 -48 0
-1727 1725 0
-1727 1726 0
1727 -1725 -1726 0
-1728 1724 0
-1728 1727 0
1728 -1724 -1727 0
-1729 -1723 0
-1729 -1728 0
1729 1723 1728 0
-1730 1720 0
-1730 -1729 0
1730 -1720 1729 0
-1731 -1719 0
-1731 -1730 0
1731 1719 1730 0
-1732 1716 0
-1732 -1731 0
1732 -1716 1731 0
-1733 -1715 0
-1733 -1732 0
1733 1715 1732 0
-1734 1712 0
-1734 -1733 0
1734 -1712 1733 0
-1735 -1711 0
-1735 -1734 0
1735 1711 1734 0
-1736 1708 0
-1736 -1735 0
1736 -1708 1735 0
-1737 -1707 0
-1737 -1736 0
1737 1707 1736 0
-1738 1704 0
-1738 -1737 0
1738 -1704 1737 0
-1739 -1703 0
-1739 -1738 0
1739 1703 1738 0
-1740 1700 0
-1740 -1739 0
1740 -1700 1739 0
-1741 -1699 0
-1741 -1740 0
1741 1699 1740 0
-1742 1696 0
-1742 -1741 0
1742 -1696 1741 0
-1743 -1695 0
-1743 -1742 0
1743 1695 1742 0
-1744 1743 -1692 0
-1744 -1743 1692 0
1744 1743 1692 0
1744 -1743 -1692 0
-1745 8 0
-1745 24 0
1745 -8 -24 0
-1746 -1745 -1744 0
-1746 1745 1744 0
1746 -1745 1744 0
1746 1745 -1744 0
-1747 1741 -1696 0
-1747 -1741 1696 0
1747 1741 1696 0
1747 -1741 -1696 0
-1748 9 0
-1748 24 0
1748 -9 -24 0
-1749 1747 0
-1749 1748 0
1749 -1747 -1748 0
-1750 -1748 -1747 0
-1750 1748 1747 0
1750 -1748 1747 0
1750 1748 -1747 0
-1751 1739 -1700 0
-1751 -1739 1700 0
1751 1739 1700 0
1751 -1739 -1700 0
-1752 10 0
-1752 24 0
1752 -10 -24 0
-1753 1751 0
-1753 1752 0
1753 -1751 -1752 0
-1754 -1752 -1751 0
-1754 1752 1751 0
1754 -1752 1751 0
1754 1752 -1751 0
-1755 1737 -1704 0
-1755 -1737 1704 0
1755 1737 1704 0
1755 -1737 -1704 0
-1756 11 0
-1756 24 0
1756 -11 -24 0
-1757 1755 0
-1757 1756 0
1757 -1755 -1756 0
-1758 -1756 -1755 0
-1758 1756 1755 0
1758 -1756 1755 0
1758 1756 -1755 0
-1759 1735 -1708 0
-1759 -1735 1708 0
1759 1735 1708 0
1759 -1735 -1708 0
-1760 12 0
-1760 24 0
1760 -12 -24 0
-1761 1759 0
-1761 1760 0
1761 -1759 -1760 0
-1762 -1760 -1759 0
-1762 1760 1759 0
1762 -1760 1759 0
1762 1760 -1759 0
-1763 1733 -1712 0
-1763 -1733 1712 0
1763 1733 1712 0
1763 -1733 -1712 0
-1764 13 0
-1764 24 0
1764 -13 -24 0
-1765 1763 0
-1765 1764 0
1765 -1763 -1764 0
-1766 -1764 -1763 0
-1766 1764 1763 0
1766 -1764 1763 0
1766 1764 -1763 0
-1767 1731 -1716 0
-1767 -1731 1716 0
1767 1731 1716 0
1767 -1731 -1716 0
-1768 14 0
-1768 24 0
1768 -14 -24 0
-1769 1767 0
-1769 1768 0
1769 -1767 -1768 0
-1770 -1768 -1767 0
-1770 1768 1767 0
1770 -1768 1767 0
1770 1768 -1767 0
-1771 1729 -1720 0
-1771 -1729 1720 0
1771 1729 1720 0
1771 -1729 -1720 0
-1772 15 0
-1772 24 0
1772 -15 -24 0
-1773 1771 0
-1773 1772 0
1773 -1771 -1772 0
-1774 -1772 -1771 0
-1774 1772 1771 0
1774 -1772 1771 0
1774 1772 -1771 0
-1775 -1727 -1724 0
-1775 1727 1724 0
1775 -1727 1724 0
1775 1727 -1724 0
-1776 24 0
-1776 48 0
1776 -24 -48 0
-1777 1775 0
-1777 1776 0
1777 -1775 -1776 0
-1778 1774 0
-1778 1777 0
1778 -1774 -1777 0
-1779 -1773 0
-1779 -1778 0
1779 1773 1778 0
-1780 1770 0
-1780 -1779 0
1780 -1770 1779 0
-1781 -1769 0
-1781 -1780 0
1781 1769 1780 0
-1782 1766 0
-1782 -1781 0
1782 -1766 1781 0
-1783 -1765 0
-1783 -1782 0
1783 1765 1782 0
-1784 1762 0
-1784 -1783 0
1784 -1762 1783 0
-1785 -1761 0
-1785 -1784 0
1785 1761 1784 0
-1786 1758 0
-1786 -1785 0
1786 -1758 1785 0
-1787 -1757 0
-1787 -1786 0
1787 1757 1786 0
-1788 1754 0
-1788 -1787 0
1788 -1754 1787 0
-1789 -1753 0
-1789 -1788 0
1789 1753 1788 0
-1790 1750 0
-1790 -1789 0
1790 -1750 1789 0
-1791 -1749 0
-1791 -1790 0
1791 1749 1790 0
-1792 1791 -1746 0
-1792 -1791 1746 0
1792 1791 1746 0
1792 -1791 -1746 0
-1793 9 0
-1793 23 0
1793 -9 -23 0
-1794 -1793 -1792 0
-1794 1793 1792 0
1794 -1793 1792 0
1794 1793 -1792 0
-1795 1789 -1750 0
-1795 -1789 1750 0
1795 1789 1750 0
1795 -1789 -1750 0
-1796 10 0
-1796 23 0
1796 -10 -23 0
-1797 1795 0
-1797 1796 0
1797 -1795 -1796 0
-1798 -1796 -1795 0
-1798 1796 1795 0
1798 -1796 1795 0
1798 1796 -1795 0
-1799 1787 -1754 0
-1799 -1787 1754 0
1799 1787 1754 0
1799 -1787 -1754 0
-1800 11 0
-1800 23 0
1800 -11 -23 0
-1801 1799 0
-1801 1800 0
1801 -1799 -1800 0
-1802 -1800 -1799 0
-1802 1800 1799 0
1802 -1800 1799 0
1802 1800 -1799 0
-1803 1785 -1758 0
-1803 -1785 1758 0
1803 1785 1758 0
1803 -1785 -1758 0
-1804 12 0
-1804 23 0
1804 -12 -23 0
-1805 1803 0
-1805 1804 0
1805 -1803 -1804 0
-1806 -1804 -1803 0
-1806 1804 1803 0
1806 -1804 1803 0
1806 1804 -1803 0
-1807 1783 -1762 0
-1807 -1783 1762 0
1807 1783 1762 0
1807 -1783 -1762 0
-1808 13 0
-1808 23 0
1808 -13 -23 0
-1809 1807 0
-1809 1808 0
1809 -1807 -1808 0
-1810 -1808 -1807 0
-1810 1808 1807 0
1810 -1808 1807 0
1810 1808 -1807 0
-1811 1781 -1766 0
-1811 -1781 1766 0
1811 1781 1766 0
1811 -1781 -1766 0
-1812 14 0
-1812 23 0
1812 -14 -23 0
-1813 1811 0
-1813 1812 0
1813 -1811 -1812 0
-1814 -1812 -1811 0
-1814 1812 1811 0
1814 -1812 1811 0
1814 1812 -1811 0
-1815 1779 -1770 0
-1815 -1779 1770 0
1815 1779 1770 0
1815 -1779 -1770 0
-1816 15 0
-1816 23 0
1816 -15 -23 0
-1817 1815 0
-1817 1816 0
1817 -1815 -1816 0
-1818 -1816 -1815 0
-1818 1816 1815 0
1818 -1816 1815 0
1818 1816 -1815 0
-1819 -1777 -1774 0
-1819 1777 1774 0
1819 -1777 1774 0
1819 1777 -1774 0
-1820 23 0
-1820 48 0
1820 -23 -48 0
-1821 1819 0
-1821 1820 0
1821 -1819 -1820 0
-1822 1818 0
-1822 1821 0
1822 -1818 -1821 0
-1823 -1817 0
-1823 -1822 0
1823 1817 1822 0
-1824 1814 0
-1824 -1823 0
1824 -1814 1823 0
-1825 -1813 0
-1825 -1824 0
1825 1813 1824 0
-1826 1810 0
-1826 -1825 0
1826 -1810 1825 0
-1827 -1809 0
-1827 -1826 0
1827 1809 1826 0
-1828 1806 0
-1828 -1827 0
1828 -1806 1827 0
-1829 -1805 0
-1829 -1828 0
1829 1805 1828 0
-1830 1802 0
-1830 -1829 0
1830 -1802 1829 0
-1831 -1801 0
-1831 -1830 0
1831 1801 1830 0
-1832 1798 0
-1832 -1831 0
1832 -1798 1831 0
-1833 -1797 0
-1833 -1832 0
1833 1797 1832 0
-1834 1833 -1794 0
-1834 -1833 1794 0
1834 1833 1794 0
1834 -1833 -1794 0
-1835 10 0
-1835 22 0
1835 -10 -22 0
-1836 -1835 -1834 0
-1836 1835 1834 0
1836 -1835 1834 0
1836 1835 -1834 0
-1837 1831 -1798 0
-1837 -1831 1798 0
1837 1831 1798 0
1837 -1831 -1798 0
-1838 11 0
-1838 22 0
1838 -11 -22 0
-1839 1837 0
-1839 1838 0
1839 -1837 -1838 0
-1840 -1838 -1837 0
-1840 1838 1837 0
1840 -1838 1837 0
1840 1838 -1837 0
-1841 1829 -1802 0
-1841 -1829 1802 0
1841 1829 1802 0
1841 -1829 -1802 0
-1842 12 0
-1842 22 0
1842 -12 -22 0
-1843 1841 0
-1843 1842 0
1843 -1841 -1842 0
-1844 -1842 -1841 0
-1844 1842 1841 0
1844 -1842 1841 0
1844 1842 -1841 0
-1845 1827 -1806 0
-1845 -1827 1806 0
1845 1827 1806 0
1845 -1827 -1806 0
-1846 13 0
-1846 22 0
1846 -13 -22 0
-1847 1845 0
-1847 1846 0
1847 -1845 -1846 0
-1848 -1846 -1845 0
-1848 1846 1845 0
1848 -1846 1845 0
1848 1846 -1845 0
-1849 1825 -1810 0
-1849 -1825 1810 0
1849 1825 1810 0
1849 -1825 -1810 0
-1850 14 0
-1850 22 0
1850 -14 -22 0
-1851 1849 0
-1851 1850 0
1851 -1849 -1850 0
-1852 -1850 -1849 0
-1852 1850 1849 0
1852 -1850 1849 0
1852 1850 -1849 0
-1853 1823 -1814 0
-1853 -1823 1814 0
1853 1823 1814 0
1853 -1823 -1814 0
-1854 15 0
-1854 22 0
1854 -15 -22 0
-1855 1853 0
-1855 1854 0
1855 -1853 -1854 0
-1856 -1854 -1853 0
-1856 1854 1853 0
1856 -1854 1853 0
1856 1854 -1853 0
-1857 -1821 -1818 0
-1857 1821 1818 0
1857 -1821 1818 0
1857 1821 -1818 0
-1858 22 0
-1858 48 0
1858 -22 -48 0
-1859 1857 0
-1859 1858 0
1859 -1857 -1858 0
-1860 1856 0
-1860 1859 0
1860 -1856 -1859 0
-1861 -1855 0
-1861 -1860 0
1861 1855 1860 0
-1862 1852 0
-1862 -1861 0
1862 -1852 1861 0
-1863 -1851 0
-1863 -1862 0
1863 1851 1862 0
-1864 1848 0
-1864 -1863 0
1864 -1848 1863 0
-1865 -1847 0
-1865 -1864 0
1865 1847 1864 0
-1866 1844 0
-1866 -1865 0
1866 -1844 1865 0
-1867 -1843 0
-1867 -1866 0
1867 1843 1866 0
-1868 1840 0
-1868 -1867 0
1868 -1840 1867 0
-1869 -1839 0
-1869 -1868 0
1869 1839 1868 0
-1870 1869 -1836 0
-1870 -1869 1836 0
1870 1869 1836 0
1870 -1869 -1836 0
-1871 11 0
-1871 21 0
1871 -11 -21 0
-1872 -1871 -1870 0
-1872 1871 1870 0
1872 -1871 1870 0
1872 1871 -1870 0
-1873 1867 -1840 0
-1873 -1867 1840 0
1873 1867 1840 0
1873 -1867 -1840 0
-1874 12 0
-1874 21 0
1874 -12 -21 0
-1875 1873 0
-1875 1874 0
1875 -1873 -1874 0
-1876 -1874 -1873 0
-1876 1874 1873 0
1876 -1874 1873 0
1876 1874 -1873 0
-1877 1865 -1844 0
-1877 -1865 1844 0
1877 1865 1844 0
1877 -1865 -1844 0
-1878 13 0
-1878 21 0
1878 -13 -21 0
-1879 1877 0
-1879 1878 0
1879 -1877 -1878 0
-1880 -1878 -1877 0
-1880 1878 1877 0
1880 -1878 1877 0
1880 1878 -1877 0
-1881 1863 -1848 0
-1881 -1863 1848 0
1881 1863 1848 0
1881 -1863 -1848 0
-1882 14 0
-1882 21 0
1882 -14 -21 0
-1883 1881 0
-1883 1882 0
1883 -1881 -1882 0
-1884 -1882 -1881 0
-1884 1882 1881 0
1884 -1882 1881 0
1884 1882 -1881 0
-1885 1861 -1852 0
-1885 -1861 1852 0
1885 1861 1852 0
1885 -1861 -1852 0
-1886 15 0
-1886 21 0
1886 -15 -21 0
-1887 1885 0
-1887 1886 0
1887 -1885 -1886 0
-1888 -1886 -1885 0
-1888 1886 1885 0
1888 -1886 1885 0
1888 1886 -1885 0
-1889 -1859 -1856 0
-1889 1859 1856 0
1889 -1859 1856 0
1889 1859 -1856 0
-1890 21 0
-1890 48 0
1890 -21 -48 0
-1891 1889 0
-1891 1890 0
1891 -1889 -1890 0
-1892 1888 0
-1892 1891 0
1892 -1888 -1891 0
-1893 -1887 0
-1893 -1892 0
1893 1887 1892 0
-1894 1884 0
-1894 -1893 0
1894 -1884 1893 0
-1895 -1883 0
-1895 -1894 0
1895 1883 1894 0
-1896 1880 0
-1896 -1895 0
1896 -1880 1895 0
-1897 -1879 0
-1897 -1896 0
1897 1879 1896 0
-1898 1876 0
-1898 -1897 0
1898 -1876 1897 0
-1899 -1875 0
-1899 -1898 0
1899 1875 1898 0
-1900 1899 -1872 0
-1900 -1899 1872 0
1900 1899 1872 0
1900 -1899 -1872 0
-1901 12 0
-1901 20 0
1901 -12 -20 0
-1902 -1901 -1900 0
-1902 1901 1900 0
1902 -1901 1900 0
1902 1901 -1900 0
-1903 1897 -1876 0
-1903 -1897 1876 0
1903 1897 1876 0
1903 -1897 -1876 0
-1904 13 0
-1904 20 0
1904 -13 -20 0
-1905 1903 0
-1905 1904 0
1905 -1903 -1904 0
-1906 -1904 -1903 0
-1906 1904 1903 0
1906 -1904 1903 0
1906 1904 -1903 0
-1907 1895 -1880 0
-1907 -1895 1880 0
1907 1895 1880 0
1907 -1895 -1880 0
-1908 14 0
-1908 20 0
1908 -14 -20 0
-1909 1907 0
-1909 1908 0
1909 -1907 -1908 0
-1910 -1908 -1907 0
-1910 1908 1907 0
1910 -1908 1907 0
1910 1908 -1907 0
-1911 1893 -1884 0
-1911 -1893 1884 0
1911 1893 1884 0
1911 -1893 -1884 0
-1912 15 0
-1912 20 0
1912 -15 -20 0
-1913 1911 0
-1913 1912 0
1913 -1911 -1912 0
-1914 -1912 -1911 0
-1914 1912 1911 0
1914 -1912 1911 0
1914 1912 -1911 0
-1915 -1891 -1888 0
-1915 1891 1888 0
1915 -1891 1888 0
1915 1891 -1888 0
-1916 20 0
-1916 48 0
1916 -20 -48 0
-1917 1915 0
-1917 1916 0
1917 -1915 -1916 0
-1918 1914 0
-1918 1917 0
1918 -1914 -1917 0
-1919 -1913 0
-1919 -1918 0
1919 1913 1918 0
-1920 1910 0
-1920 -1919 0
1920 -1910 1919 0
-1921 -1909 0
-1921 -1920 0
1921 1909 1920 0
-1922 1906 0
-1922 -1921 0
1922 -1906 1921 0
-1923 -1905 0
-1923 -1922 0
1923 1905 1922 0
-1924 1923 -1902 0
-1924 -1923 1902 0
1924 1923 1902 0
1924 -1923 -1902 0
-1925 13 0
-1925 19 0
1925 -13 -19 0
-1926 -1925 -1924 0
-1926 1925 1924 0
1926 -1925 1924 0
1926 1925 -1924 0
-1927 1921 -1906 0
-1927 -1921 1906 0
1927 1921 1906 0
1927 -1921 -1906 0
-1928 14 0
-1928 19 0
1928 -14 -19 0
-1929 1927 0
-1929 1928 0
1929 -1927 -1928 0
-1930 -1928 -1927 0
-1930 1928 1927 0
1930 -1928 1927 0
1930 1928 -1927 0
-1931 1919 -1910 0
-1931 -1919 1910 0
1931 1919 1910 0
1931 -1919 -1910 0
-1932 15 0
-1932 19 0
1932 -15 -19 0
-1933 1931 0
-1933 1932 0
1933 -1931 -1932 0
-1934 -1932 -1931 0
-1934 1932 1931 0
1934 -1932 1931 0
1934 1932 -1931 0
-1935 -1917 -1914 0
-1935 1917 1914 0
1935 -1917 1914 0
1935 1917 -1914 0
-1936 19 0
-1936 48 0
1936 -19 -48 0
-1937 1935 0
-1937 1936 0
1937 -1935 -1936 0
-1938 1934 0
-1938 1937 0
1938 -1934 -1937 0
-1939 -1933 0
-1939 -1938 0
1939 1933 1938 0
-1940 1930 0
-1940 -1939 0
1940 -1930 1939 0
-1941 -1929 0
-1941 -1940 0
1941 1929 1940 0
-1942 1941 -1926 0
-1942 -1941 1926 0
1942 1941 1926 0
1942 -1941 -1926 0
-1943 14 0
-1943 18 0
1943 -14 -18 0
-1944 -1943 -1942 0
-1944 1943 1942 0
1944 -1943 1942 0
1944 1943 -1942 0
-1945 1939 -1930 0
-1945 -1939 1930 0
1945 1939 1930 0
1945 -1939 -1930 0
-1946 15 0
-1946 18 0
1946 -15 -18 0
-1947 1945 0
-1947 1946 0
1947 -1945 -1946 0
-1948 -1946 -1945 0
-1948 1946 1945 0
1948 -1946 1945 0
1948 1946 -1945 0
-1949 -1937 -1934 0
-1949 1937 1934 0
1949 -1937 1934 0
1949 1937 -1934 0
-1950 18 0
-1950 48 0
1950 -18 -48 0
-1951 1949 0
-1951 1950 0
1951 -1949 -1950 0
-1952 1948 0
-1952 1951 0
1952 -1948 -1951 0
-1953 -1947 0
-1953 -1952 0
1953 1947 1952 0
-1954 1953 -1944 0
-1954 -1953 1944 0
1954 1953 1944 0
1954 -1953 -1944 0
-1955 15 0
-1955 17 0
1955 -15 -17 0
-1956 -1955 -1954 0
-1956 1955 1954 0
1956 -1955 1954 0
1956 1955 -1954 0
-1957 -1951 -1948 0
-1957 1951 1948 0
1957 -1951 1948 0
1957 1951 -1948 0
-1958 17 0
-1958 48 0
1958 -17 -48 0
-1959 1957 0
-1959 1958 0
1959 -1957 -1958 0
-1960 -1959 -1956 0
-1960 1959 1956 0
1960 -1959 1956 0
1960 1959 -1956 0
-1961 16 0
-1961 48 0
1961 -16 -48 0
-1962 -1961 -1960 0
-1962 1961 1960 0
1962 -1961 1960 0
1962 1961 -1960 0
-1963 47 0
-1963 1962 0
1963 -47 -1962 0
-1964 -1958 -1957 0
-1964 1958 1957 0
1964 -1958 1957 0
1964 1958 -1957 0
-1965 45 0
-1965 1964 0
1965 -45 -1964 0
-1966 -1965 -1963 0
-1966 1965 1963 0
1966 -1965 1963 0
1966 1965 -1963 0
-1967 47 0
-1967 1964 0
1967 -47 -1964 0
-1968 -1950 -1949 0
-1968 1950 1949 0
1968 -1950 1949 0
1968 1950 -1949 0
-1969 45 0
-1969 1968 0
1969 -45 -1968 0
-1970 1967 0
-1970 1969 0
1970 -1967 -1969 0
-1971 -1969 -1967 0
-1971 1969 1967 0
1971 -1969 1967 0
1971 1969 -1967 0
-1972 47 0
-1972 1968 0
1972 -47 -1968 0
-1973 -1936 -1935 0
-1973 1936 1935 0
1973 -1936 1935 0
1973 1936 -1935 0
-1974 45 0
-1974 1973 0
1974 -45 -1973 0
-1975 1972 0
-1975 1974 0
1975 -1972 -1974 0
-1976 -1974 -1972 0
-1976 1974 1972 0
1976 -1974 1972 0
1976 1974 -1972 0
-1977 47 0
-1977 1973 0
1977 -47 -1973 0
-1978 -1916 -1915 0
-1978 1916 1915 0
1978 -1916 1915 0
1978 1916 -1915 0
-1979 45 0
-1979 1978 0
1979 -45 -1978 0
-1980 1977 0
-1980 1979 0
1980 -1977 -1979 0
-1981 -1979 -1977 0
-1981 1979 1977 0
1981 -1979 1977 0
1981 1979 -1977 0
-1982 47 0
-1982 1978 0
1982 -47 -1978 0
-1983 -1890 -1889 0
-1983 1890 1889 0
1983 -1890 1889 0
1983 1890 -1889 0
-1984 45 0
-1984 1983 0
1984 -45 -1983 0
-1985 1982 0
-1985 1984 0
1985 -1982 -1984 0
-1986 -1984 -1982 0
-1986 1984 1982 0
1986 -1984 1982 0
1986 1984 -1982 0
-1987 47 0
-1987 1983 0
1987 -47 -1983 0
-1988 -1858 -1857 0
-1988 1858 1857 0
1988 -1858 1857 0
1988 1858 -1857 0
-1989 45 0
-1989 1988 0
1989 -45 -1988 0
-1990 1987 0
-1990 1989 0
1990 -1987 -1989 0
-1991 -1989 -1987 0
-1991 1989 1987 0
1991 -1989 1987 0
1991 1989 -1987 0
-1992 47 0
-1992 1988 0
1992 -47 -1988 0
-1993 -1820 -1819 0
-1993 1820 1819 0
1993 -1820 1819 0
1993 1820 -1819 0
-1994 45 0
-1994 1993 0
1994 -45 -1993 0
-1995 1992 0
-1995 1994 0
1995 -1992 -1994 0
-1996 -1994 -1992 0
-1996 1994 1992 0
1996 -1994 1992 0
1996 1994 -1992 0
-1997 47 0
-1997 1993 0
1997 -47 -1993 0
-1998 -1776 -1775 0
-1998 1776 1775 0
1998 -1776 1775 0
1998 1776 -1775 0
-1999 45 0
-1999 1998 0
1999 -45 -1998 0
-2000 1997 0
-2000 1999 0
2000 -1997 -1999 0
-2001 -1999 -1997 0
-2001 1999 1997 0
2001 -1999 1997 0
2001 1999 -1997 0
-2002 47 0
-2002 1998 0
2002 -47 -1998 0
-2003 -1726 -1725 0
-2003 1726 1725 0
2003 -1726 1725 0
2003 1726 -1725 0
-2004 45 0
-2004 2003 0
2004 -45 -2003 0
-2005 2002 0
-2005 2004 0
2005 -2002 -2004 0
-2006 -2004 -2002 0
-2006 2004 2002 0
2006 -2004 2002 0
2006 2004 -2002 0
-2007 47 0
-2007 2003 0
2007 -47 -2003 0
-2008 -1670 -1669 0
-2008 1670 1669 0
2008 -1670 1669 0
2008 1670 -1669 0
-2009 45 0
-2009 2008 0
2009 -45 -2008 0
-2010 2007 0
-2010 2009 0
2010 -2007 -2009 0
-2011 -2009 -2007 0
-2011 2009 2007 0
2011 -2009 2007 0
2011 2009 -2007 0
-2012 47 0
-2012 2008 0
2012 -47 -2008 0
-2013 -1608 -1607 0
-2013 1608 1607 0
2013 -1608 1607 0
2013 1608 -1607 0
-2014 45 0
-2014 2013 0
2014 -45 -2013 0
-2015 2012 0
-2015 2014 0
2015 -2012 -2014 0
-2016 -2014 -2012 0
-2016 2014 2012 0
2016 -2014 2012 0
2016 2014 -2012 0
-2017 47 0
-2017 2013 0
2017 -47 -2013 0
-2018 -1540 -1539 0
-2018 1540 1539 0
2018 -1540 1539 0
2018 1540 -1539 0
-2019 45 0
-2019 2018 0
2019 -45 -2018 0
-2020 2017 0
-2020 2019 0
2020 -2017 -2019 0
-2021 -2019 -2017 0
-2021 2019 2017 0
2021 -2019 2017 0
2021 2019 -2017 0
-2022 47 0
-2022 2018 0
2022 -47 -2018 0
-2023 -1466 -1465 0
-2023 1466 1465 0
2023 -1466 1465 0
2023 1466 -1465 0
-2024 45 0
-2024 2023 0
2024 -45 -2023 0
-2025 2022 0
-2025 2024 0
2025 -2022 -2024 0
-2026 -2024 -2022 0
-2026 2024 2022 0
2026 -2024 2022 0
2026 2024 -2022 0
-2027 47 0
-2027 2023 0
2027 -47 -2023 0
-2028 -1386 -1385 0
-2028 1386 1385 0
2028 -1386 1385 0
2028 1386 -1385 0
-2029 45 0
-2029 2028 0
2029 -45 -2028 0
-2030 2027 0
-2030 2029 0
2030 -2027 -2029 0
-2031 -2029 -2027 0
-2031 2029 2027 0
2031 -2029 2027 0
2031 2029 -2027 0
-2032 47 0
-2032 2028 0
2032 -47 -2028 0
-2033 46 0
-2033 48 0
2033 -46 -48 0
-2034 45 0
-2034 2033 0
2034 -45 -2033 0
-2035 2032 0
-2035 2034 0
2035 -2032 -2034 0
-2036 2031 0
-2036 2035 0
2036 -2031 -2035 0
-2037 -2030 0
-2037 -2036 0
2037 2030 2036 0
-2038 2026 0
-2038 -2037 0
2038 -2026 2037 0
-2039 -2025 0
-2039 -2038 0
2039 2025 2038 0
-2040 2021 0
-2040 -2039 0
2040 -2021 2039 0
-2041 -2020 0
-2041 -2040 0
2041 2020 2040 0
-2042 2016 0
-2042 -2041 0
2042 -2016 2041 0
-2043 -2015 0
-2043 -2042 0
2043 2015 2042 0
-2044 2011 0
-2044 -2043 0
2044 -2011 2043 0
-2045 -2010 0
-2045 -2044 0
2045 2010 2044 0
-2046 2006 0
-2046 -2045 0
2046 -2006 2045 0
-2047 -2005 0
-2047 -2046 0
2047 2005 2046 0
-2048 2001 0
-2048 -2047 0
2048 -2001 2047 0
-2049 -2000 0
-2049 -2048 0
2049 2000 2048 0
-2050 1996 0
-2050 -2049 0
2050 -1996 2049 0
-2051 -1995 0
-2051 -2050 0
2051 1995 2050 0
-2052 1991 0
-2052 -2051 0
2052 -1991 2051 0
-2053 -1990 0
-2053 -2052 0
2053 1990 2052 0
-2054 1986 0
-2054 -2053 0
2054 -1986 2053 0
-2055 -1985 0
-2055 -2054 0
2055 1985 2054 0
-2056 1981 0
-2056 -2055 0
2056 -1981 2055 0
-2057 -1980 0
-2057 -2056 0
2057 1980 2056 0
-2058 1976 0
-2058 -2057 0
2058 -1976 2057 0
-2059 -1975 0
-2059 -2058 0
2059 1975 2058 0
-2060 1971 0
-2060 -2059 0
2060 -1971 2059 0
-2061 -1970 0
-2061 -2060 0
2061 1970 2060 0
-2062 2061 -1966 0
-2062 -2061 1966 0
2062 2061 1966 0
2062 -2061 -1966 0
-2063 44 0
-2063 1968 0
2063 -44 -1968 0
-2064 -2063 -2062 0
-2064 2063 2062 0
2064 -2063 2062 0
2064 2063 -2062 0
-2065 2059 -1971 0
-2065 -2059 1971 0
2065 2059 1971 0
2065 -2059 -1971 0
-2066 44 0
-2066 1973 0
2066 -44 -1973 0
-2067 2065 0
-2067 2066 0
2067 -2065 -2066 0
-2068 -2066 -2065 0
-2068 2066 2065 0
2068 -2066 2065 0
2068 2066 -2065 0
-2069 2057 -1976 0
-2069 -2057 1976 0
2069 2057 1976 0
2069 -2057 -1976 0
-2070 44 0
-2070 1978 0
2070 -44 -1978 0
-2071 2069 0
-2071 2070 0
2071 -2069 -2070 0
-2072 -2070 -2069 0
-2072 2070 2069 0
2072 -2070 2069 0
2072 2070 -2069 0
-2073 2055 -1981 0
-2073 -2055 1981 0
2073 2055 1981 0
2073 -2055 -1981 0
-2074 44 0
-2074 1983 0
2074 -44 -1983 0
-2075 2073 0
-2075 2074 0
2075 -2073 -2074 0
-2076 -2074 -2073 0
-2076 2074 2073 0
2076 -2074 2073 0
2076 2074 -2073 0
-2077 2053 -1986 0
-2077 -2053 1986 0
2077 2053 1986 0
2077 -2053 -1986 0
-2078 44 0
-2078 1988 0
2078 -44 -1988 0
-2079 2077 0
-2079 2078 0
2079 -2077 -2078 0
-2080 -2078 -2077 0
-2080 2078 2077 0
2080 -2078 2077 0
2080 2078 -2077 0
-2081 2051 -1991 0
-2081 -2051 1991 0
2081 2051 1991 0
2081 -2051 -1991 0
-2082 44 0
-2082 1993 0
2082 -44 -1993 0
-2083 2081 0
-2083 2082 0
2083 -2081 -2082 0
-2084 -2082 -2081 0
-2084 2082 2081 0
2084 -2082 2081 0
2084 2082 -2081 0
-2085 2049 -1996 0
-2085 -2049 1996 0
2085 2049 1996 0
2085 -2049 -1996 0
-2086 44 0
-2086 1998 0
2086 -44 -1998 0
-2087 2085 0
-2087 2086 0
2087 -2085 -2086 0
-2088 -2086 -2085 0
-2088 2086 2085 0
2088 -2086 2085 0
2088 2086 -2085 0
-2089 2047 -2001 0
-2089 -2047 2001 0
2089 2047 2001 0
2089 -2047 -2001 0
-2090 44 0
-2090 2003 0
2090 -44 -2003 0
-2091 2089 0
-2091 2090 0
2091 -2089 -2090 0
-2092 -2090 -2089 0
-2092 2090 2089 0
2092 -2090 2089 0
2092 2090 -2089 0
-2093 2045 -2006 0
-2093 -2045 2006 0
2093 2045 2006 0
2093 -2045 -2006 0
-2094 44 0
-2094 2008 0
2094 -44 -2008 0
-2095 2093 0
-2095 2094 0
2095 -2093 -2094 0
-2096 -2094 -2093 0
-2096 2094 2093 0
2096 -2094 2093 0
2096 2094 -2093 0
-2097 2043 -2011 0
-2097 -2043 2011 0
2097 2043 2011 0
2097 -2043 -2011 0
-2098 44 0
-2098 2013 0
2098 -44 -2013 0
-2099 2097 0
-2099 2098 0
2099 -2097 -2098 0
-2100 -2098 -2097 0
-2100 2098 2097 0
2100 -2098 2097 0
2100 2098 -2097 0
-2101 2041 -2016 0
-2101 -2041 2016 0
2101 2041 2016 0
2101 -2041 -2016 0
-2102 44 0
-2102 2018 0
2102 -44 -2018 0
-2103 2101 0
-2103 2102 0
2103 -2101 -2102 0
-2104 -2102 -2101 0
-2104 2102 2101 0
2104 -2102 2101 0
2104 2102 -2101 0
-2105 2039 -2021 0
-2105 -2039 2021 0
2105 2039 2021 0
2105 -2039 -2021 0
-2106 44 0
-2106 2023 0
2106 -44 -2023 0
-2107 2105 0
-2107 2106 0
2107 -2105 -2106 0
-2108 -2106 -2105 0
-2108 2106 2105 0
2108 -2106 2105 0
2108 2106 -2105 0
-2109 2037 -2026 0
-2109 -2037 2026 0
2109 2037 2026 0
2109 -2037 -2026 0
-2110 44 0
-2110 2028 0
2110 -44 -2028 0
-2111 2109 0
-2111 2110 0
2111 -2109 -2110 0
-2112 -2110 -2109 0
-2112 2110 2109 0
2112 -2110 2109 0
2112 2110 -2109 0
-2113 -2035 -2031 0
-2113 2035 2031 0
2113 -2035 2031 0
2113 2035 -2031 0
-2114 44 0
-2114 2033 0
2114 -44 -2033 0
-2115 2113 0
-2115 2114 0
2115 -2113 -2114 0
-2116 2112 0
-2116 2115 0
2116 -2112 -2115 0
-2117 -2111 0
-2117 -2116 0
2117 2111 2116 0
-2118 2108 0
-2118 -2117 0
2118 -2108 2117 0
-2119 -2107 0
-2119 -2118 0
2119 2107 2118 0
-2120 2104 0
-2120 -2119 0
2120 -2104 2119 0
-2121 -2103 0
-2121 -2120 0
2121 2103 2120 0
-2122 2100 0
-2122 -2121 0
2122 -2100 2121 0
-2123 -2099 0
-2123 -2122 0
2123 2099 2122 0
-2124 2096 0
-2124 -2123 0
2124 -2096 2123 0
-2125 -2095 0
-2125 -2124 0
2125 2095 2124 0
-2126 2092 0
-2126 -2125 0
2126 -2092 2125 0
-2127 -2091 0
-2127 -2126 0
2127 2091 2126 0
-2128 2088 0
-2128 -2127 0
2128 -2088 2127 0
-2129 -2087 0
-2129 -2128 0
2129 2087 2128 0
-2130 2084 0
-2130 -2129 0
2130 -2084 2129 0
-2131 -2083 0
-2131 -2130 0
2131 2083 2130 0
-2132 2080 0
-2132 -2131 0
2132 -2080 2131 0
-2133 -2079 0
-2133 -2132 0
2133 2079 2132 0
-2134 2076 0
-2134 -2133 0
2134 -2076 2133 0
-2135 -2075 0
-2135 -2134 0
2135 2075 2134 0
-2136 2072 0
-2136 -2135 0
2136 -2072 2135 0
-2137 -2071 0
-2137 -2136 0
2137 2071 2136 0
-2138 2068 0
-2138 -2137 0
2138 -2068 2137 0
-2139 -2067 0
-2139 -2138 0
2139 2067 2138 0
-2140 2139 -2064 0
-2140 -2139 2064 0
2140 2139 2064 0
2140 -2139 -2064 0
-2141 43 0
-2141 1973 0
2141 -43 -1973 0
-2142 -2141 -2140 0
-2142 2141 2140 0
2142 -2141 2140 0
2142 2141 -2140 0
-2143 2137 -2068 0
-2143 -2137 2068 0
2143 2137 2068 0
2143 -2137 -2068 0
-2144 43 0
-2144 1978 0
2144 -43 -1978 0
-2145 2143 0
-2145 2144 0
2145 -2143 -2144 0
-2146 -2144 -2143 0
-2146 2144 2143 0
2146 -2144 2143 0
2146 2144 -2143 0
-2147 2135 -2072 0
-2147 -2135 2072 0
2147 2135 2072 0
2147 -2135 -2072 0
-2148 43 0
-2148 1983 0
2148 -43 -1983 0
-2149 2147 0
-2149 2148 0
2149 -2147 -2148 0
-2150 -2148 -2147 0
-2150 2148 2147 0
2150 -2148 2147 0
2150 2148 -2147 0
-2151 2133 -2076 0
-2151 -2133 2076 0
2151 2133 2076 0
2151 -2133 -2076 0
-2152 43 0
-2152 1988 0
2152 -43 -1988 0
-2153 2151 0
-2153 2152 0
2153 -2151 -2152 0
-2154 -2152 -2151 0
-2154 2152 2151 0
2154 -2152 2151 0
2154 2152 -2151 0
-2155 2131 -2080 0
-2155 -2131 2080 0
2155 2131 2080 0
2155 -2131 -2080 0
-2156 43 0
-2156 1993 0
2156 -43 -1993 0
-2157 2155 0
-2157 2156 0
2157 -2155 -2156 0
-2158 -2156 -2155 0
-2158 2156 2155 0
2158 -2156 2155 0
2158 2156 -2155 0
-2159 2129 -2084 0
-2159 -2129 2084 0
2159 2129 2084 0
2159 -2129 -2084 0
-2160 43 0
-2160 1998 0
2160 -43 -1998 0
-2161 2159 0
-2161 2160 0
2161 -2159 -2160 0
-2162 -2160 -2159 0
-2162 2160 2159 0
2162 -2160 2159 0
2162 2160 -2159 0
-2163 2127 -2088 0
-2163 -2127 2088 0
2163 2127 2088 0
2163 -2127 -2088 0
-2164 43 0
-2164 2003 0
2164 -43 -2003 0
-2165 2163 0
-2165 2164 0
2165 -2163 -2164 0
-2166 -2164 -2163 0
-2166 2164 2163 0
2166 -2164 2163 0
2166 2164 -2163 0
-2167 2125 -2092 0
-2167 -2125 2092 0
2167 2125 2092 0
2167 -2125 -2092 0
-2168 43 0
-2168 2008 0
2168 -43 -2008 0
-2169 2167 0
-2169 2168 0
2169 -2167 -2168 0
-2170 -2168 -2167 0
-2170 2168 2167 0
2170 -2168 2167 0
2170 2168 -2167 0
-2171 2123 -2096 0
-2171 -2123 2096 0
2171 2123 2096 0
2171 -2123 -2096 0
-2172 43 0
-2172 2013 0
2172 -43 -2013 0
-2173 2171 0
-2173 2172 0
2173 -2171 -2172 0
-2174 -2172 -2171 0
-2174 2172 2171 0
2174 -2172 2171 0
2174 2172 -2171 0
-2175 2121 -2100 0
-2175 -2121 2100 0
2175 2121 2100 0
2175 -2121 -2100 0
-2176 43 0
-2176 2018 0
2176 -43 -2018 0
-2177 2175 0
-2177 2176 0
2177 -2175 -2176 0
-2178 -2176 -2175 0
-2178 2176 2175 0
2178 -2176 2175 0
2178 2176 -2175 0
-2179 2119 -2104 0
-2179 -2119 2104 0
2179 2119 2104 0
2179 -2119 -2104 0
-2180 43 0
-2180 2023 0
2180 -43 -2023 0
-2181 2179 0
-2181 2180 0
2181 -2179 -2180 0
-2182 -2180 -2179 0
-2182 2180 2179 0
2182 -2180 2179 0
2182 2180 -2179 0
-2183 2117 -2108 0
-2183 -2117 2108 0
2183 2117 2108 0
2183 -2117 -2108 0
-2184 43 0
-2184 2028 0
2184 -43 -2028 0
-2185 2183 0
-2185 2184 0
2185 -2183 -2184 0
-2186 -2184 -2183 0
-2186 2184 2183 0
2186 -2184 2183 0
2186 2184 -2183 0
-2187 -2115 -2112 0
-2187 2115 2112 0
2187 -2115 2112 0
2187 2115 -2112 0
-2188 43 0
-2188 2033 0
2188 -43 -2033 0
-2189 2187 0
-2189 2188 0
2189 -2187 -2188 0
-2190 2186 0
-2190 2189 0
2190 -2186 -2189 0
-2191 -2185 0
-2191 -2190 0
2191 2185 2190 0
-2192 2182 0
-2192 -2191 0
2192 -2182 2191 0
-2193 -2181 0
-2193 -2192 0
2193 2181 2192 0
-2194 2178 0
-2194 -2193 0
2194 -2178 2193 0
-2195 -2177 0
-2195 -2194 0
2195 2177 2194 0
-2196 2174 0
-2196 -2195 0
2196 -2174 2195 0
-2197 -2173 0
-2197 -2196 0
2197 2173 2196 0
-2198 2170 0
-2198 -2197 0
2198 -2170 2197 0
-2199 -2169 0
-2199 -2198 0
2199 2169 2198 0
-2200 2166 0
-2200 -2199 0
2200 -2166 2199 0
-2201 -2165 0
-2201 -2200 0
2201 2165 2200 0
-2202 2162 0
-2202 -2201 0
2202 -2162 2201 0
-2203 -2161 0
-2203 -2202 0
2203 2161 2202 0
-2204 2158 0
-2204 -2203 0
2204 -2158 2203 0
-2205 -2157 0
-2205 -2204 0
2205 2157 2204 0
-2206 2154 0
-2206 -2205 0
2206 -2154 2205 0
-2207 -2153 0
-2207 -2206 0
2207 2153 2206 0
-2208 2150 0
-2208 -2207 0
2208 -2150 2207 0
-2209 -2149 0
-2209 -2208 0
2209 2149 2208 0
-2210 2146 0
-2210 -2209 0
2210 -2146 2209 0
-2211 -2145 0
-2211 -2210 0
2211 2145 2210 0
-2212 2211 -2142 0
-2212 -2211 2142 0
2212 2211 2142 0
2212 -2211 -2142 0
-2213 42 0
-2213 1978 0
2213 -42 -1978 0
-2214 -2213 -2212 0
-2214 2213 2212 0
2214 -2213 2212 0
2214 2213 -2212 0
-2215 2209 -2146 0
-2215 -2209 2146 0
2215 2209 2146 0
2215 -2209 -2146 0
-2216 42 0
-2216 1983 0
2216 -42 -1983 0
-2217 2215 0
-2217 2216 0
2217 -2215 -2216 0
-2218 -2216 -2215 0
-2218 2216 2215 0
2218 -2216 2215 0
2218 2216 -2215 0
-2219 2207 -2150 0
-2219 -2207 2150 0
2219 2207 2150 0
2219 -2207 -2150 0
-2220 42 0
-2220 1988 0
2220 -42 -1988 0
-2221 2219 0
-2221 2220 0
2221 -2219 -2220 0
-2222 -2220 -2219 0
-2222 2220 2219 0
2222 -2220 2219 0
2222 2220 -2219 0
-2223 2205 -2154 0
-2223 -2205 2154 0
2223 2205 2154 0
2223 -2205 -2154 0
-2224 42 0
-2224 1993 0
2224 -42 -1993 0
-2225 2223 0
-2225 2224 0
2225 -2223 -2224 0
-2226 -2224 -2223 0
-2226 2224 2223 0
2226 -2224 2223 0
2226 2224 -2223 0
-2227 2203 -2158 0
-2227 -2203 2158 0
2227 2203 2158 0
2227 -2203 -2158 0
-2228 42 0
-2228 1998 0
2228 -42 -1998 0
-2229 2227 0
-2229 2228 0
2229 -2227 -2228 0
-2230 -2228 -2227 0
-2230 2228 2227 0
2230 -2228 2227 0
2230 2228 -2227 0
-2231 2201 -2162 0
-2231 -2201 2162 0
2231 2201 2162 0
2231 -2201 -2162 0
-2232 42 0
-2232 2003 0
2232 -42 -2003 0
-2233 2231 0
-2233 2232 0
2233 -2231 -2232 0
-2234 -2232 -2231 0
-2234 2232 2231 0
2234 -2232 2231 0
2234 2232 -2231 0
-2235 2199 -2166 0
-2235 -2199 2166 0
2235 2199 2166 0
2235 -2199 -2166 0
-2236 42 0
-2236 2008 0
2236 -42 -2008 0
-2237 2235 0
-2237 2236 0
2237 -2235 -2236 0
-2238 -2236 -2235 0
-2238 2236 2235 0
2238 -2236 2235 0
2238 2236 -2235 0
-2239 2197 -2170 0
-2239 -2197 2170 0
2239 2197 2170 0
2239 -2197 -2170 0
-2240 42 0
-2240 2013 0
2240 -42 -2013 0
-2241 2239 0
-2241 2240 0
2241 -2239 -2240 0
-2242 -2240 -2239 0
-2242 2240 2239 0
2242 -2240 2239 0
2242 2240 -2239 0
-2243 2195 -2174 0
-2243 -2195 2174 0
2243 2195 2174 0
2243 -2195 -2174 0
-2244 42 0
-2244 2018 0
2244 -42 -2018 0
-2245 2243 0
-2245 2244 0
2245 -2243 -2244 0
-2246 -2244 -2243 0
-2246 2244 2243 0
2246 -2244 2243 0
2246 2244 -2243 0
-2247 2193 -2178 0
-2247 -2193 2178 0
2247 2193 2178 0
2247 -2193 -2178 0
-2248 42 0
-2248 2023 0
2248 -42 -2023 0
-2249 2247 0
-2249 2248 0
2249 -2247 -2248 0
-2250 -2248 -2247 0
-2250 2248 2247 0
2250 -2248 2247 0
2250 2248 -2247 0
-2251 2191 -2182 0
-2251 -2191 2182 0
2251 2191 2182 0
2251 -2191 -2182 0
-2252 42 0
-2252 2028 0
2252 -42 -2028 0
-2253 2251 0
-2253 2252 0
2253 -2251 -2252 0
-2254 -2252 -2251 0
-2254 2252 2251 0
2254 -2252 2251 0
2254 2252 -2251 0
-2255 -2189 -2186 0
-2255 2189 2186 0
2255 -2189 2186 0
2255 2189 -2186 0
-2256 42 0
-2256 2033 0
2256 -42 -2033 0
-2257 2255 0
-2257 2256 0
2257 -2255 -2256 0
-2258 2254 0
-2258 2257 0
2258 -2254 -2257 0
-2259 -2253 0
-2259 -2258 0
2259 2253 2258 0
-2260 2250 0
-2260 -2259 0
2260 -2250 2259 0
-2261 -2249 0
-2261 -2260 0
2261 2249 2260 0
-2262 2246 0
-2262 -2261 0
2262 -2246 2261 0
-2263 -2245 0
-2263 -2262 0
2263 2245 2262 0
-2264 2242 0
-2264 -2263 0
2264 -2242 2263 0
-2265 -2241 0
-2265 -2264 0
2265 2241 2264 0
-2266 2238 0
-2266 -2265 0
2266 -2238 2265 0
-2267 -2237 0
-2267 -2266 0
2267 2237 2266 0
-2268 2234 0
-2268 -2267 0
2268 -2234 2267 0
-2269 -2233 0
-2269 -2268 0
2269 2233 2268 0
-2270 2230 0
-2270 -2269 0
2270 -2230 2269 0
-2271 -2229 0
-2271 -2270 0
2271 2229 2270 0
-2272 2226 0
-2272 -2271 0
2272 -2226 2271 0
-2273 -2225 0
-2273 -2272 0
2273 2225 2272 0
-2274 2222 0
-2274 -2273 0
2274 -2222 2273 0
-2275 -2221 0
-2275 -2274 0
2275 2221 2274 0
-2276 2218 0
-2276 -2275 0
2276 -2218 2275 0
-2277 -2217 0
-2277 -2276 0
2277 2217 2276 0
-2278 2277 -2214 0
-2278 -2277 2214 0
2278 2277 2214 0
2278 -2277 -2214 0
-2279 41 0
-2279 1983 0
2279 -41 -1983 0
-2280 -2279 -2278 0
-2280 2279 2278 0
2280 -2279 2278 0
2280 2279 -2278 0
-2281 2275 -2218 0
-2281 -2275 2218 0
2281 2275 2218 0
2281 -2275 -2218 0
-2282 41 0
-2282 1988 0
2282 -41 -1988 0
-2283 2281 0
-2283 2282 0
2283 -2281 -2282 0
-2284 -2282 -2281 0
-2284 2282 2281 0
2284 -2282 2281 0
2284 2282 -2281 0
-2285 2273 -2222 0
-2285 -2273 2222 0
2285 2273 2222 0
2285 -2273 -2222 0
-2286 41 0
-2286 1993 0
2286 -41 -1993 0
-2287 2285 0
-2287 2286 0
2287 -2285 -2286 0
-2288 -2286 -2285 0
-2288 2286 2285 0
2288 -2286 2285 0
2288 2286 -2285 0
-2289 2271 -2226 0
-2289 -2271 2226 0
2289 2271 2226 0
2289 -2271 -2226 0
-2290 41 0
-2290 1998 0
2290 -41 -1998 0
-2291 2289 0
-2291 2290 0
2291 -2289 -2290 0
-2292 -2290 -2289 0
-2292 2290 2289 0
2292 -2290 2289 0
2292 2290 -2289 0
-2293 2269 -2230 0
-2293 -2269 2230 0
2293 2269 2230 0
2293 -2269 -2230 0
-2294 41 0
-2294 2003 0
2294 -41 -2003 0
-2295 2293 0
-2295 2294 0
2295 -2293 -2294 0
-2296 -2294 -2293 0
-2296 2294 2293 0
2296 -2294 2293 0
2296 2294 -2293 0
-2297 2267 -2234 0
-2297 -2267 2234 0
2297 2267 2234 0
2297 -2267 -2234 0
-2298 41 0
-2298 2008 0
2298 -41 -2008 0
-2299 2297 0
-2299 2298 0
2299 -2297 -2298 0
-2300 -2298 -2297 0
-2300 2298 2297 0
2300 -2298 2297 0
2300 2298 -2297 0
-2301 2265 -2238 0
-2301 -2265 2238 0
2301 2265 2238 0
2301 -2265 -2238 0
-2302 41 0
-2302 2013 0
2302 -41 -2013 0
-2303 2301 0
-2303 2302 0
2303 -2301 -2302 0
-2304 -2302 -2301 0
-2304 2302 2301 0
2304 -2302 2301 0
2304 2302 -2301 0
-2305 2263 -2242 0
-2305 -2263 2242 0
2305 2263 2242 0
2305 -2263 -2242 0
-2306 41 0
-2306 2018 0
2306 -41 -2018 0
-2307 2305 0
-2307 2306 0
2307 -2305 -2306 0
-2308 -2306 -2305 0
-2308 2306 2305 0
2308 -2306 2305 0
2308 2306 -2305 0
-2309 2261 -2246 0
-2309 -2261 2246 0
2309 2261 2246 0
2309 -2261 -2246 0
-2310 41 0
-2310 2023 0
2310 -41 -2023 0
-2311 2309 0
-2311 2310 0
2311 -2309 -2310 0
-2312 -2310 -2309 0
-2312 2310 2309 0
2312 -2310 2309 0
2312 2310 -2309 0
-2313 2259 -2250 0
-2313 -2259 2250 0
2313 2259 2250 0
2313 -2259 -2250 0
-2314 41 0
-2314 2028 0
2314 -41 -2028 0
-2315 2313 0
-2315 2314 0
2315 -2313 -2314 0
-2316 -2314 -2313 0
-2316 2314 2313 0
2316 -2314 2313 0
2316 2314 -2313 0
-2317 -2257 -2254 0
-2317 2257 2254 0
2317 -2257 2254 0
2317 2257 -2254 0
-2318 41 0
-2318 2033 0
2318 -41 -2033 0
-2319 2317 0
-2319 2318 0
2319 -2317 -2318 0
-2320 2316 0
-2320 2319 0
2320 -2316 -2319 0
-2321 -2315 0
-2321 -2320 0
2321 2315 2320 0
-2322 2312 0
-2322 -2321 0
2322 -2312 2321 0
-2323 -2311 0
-2323 -2322 0
2323 2311 2322 0
-2324 2308 0
-2324 -2323 0
2324 -2308 2323 0
-2325 -2307 0
-2325 -2324 0
2325 2307 2324 0
-2326 2304 0
-2326 -2325 0
2326 -2304 2325 0
-2327 -2303 0
-2327 -2326 0
2327 2303 2326 0
-2328 2300 0
-2328 -2327 0
2328 -2300 2327 0
-2329 -2299 0
-2329 -2328 0
2329 2299 2328 0
-2330 2296 0
-2330 -2329 0
2330 -2296 2329 0
-2331 -2295 0
-2331 -2330 0
2331 2295 2330 0
-2332 2292 0
-2332 -2331 0
2332 -2292 2331 0
-2333 -2291 0
-2333 -2332 0
2333 2291 2332 0
-2334 2288 0
-2334 -2333 0
2334 -2288 2333 0
-2335 -2287 0
-2335 -2334 0
2335 2287 2334 0
-2336 2284 0
-2336 -2335 0
2336 -2284 2335 0
-2337 -2283 0
-2337 -2336 0
2337 2283 2336 0
-2338 2337 -2280 0
-2338 -2337 2280 0
2338 2337 2280 0
2338 -2337 -2280 0
-2339 40 0
-2339 1988 0
2339 -40 -1988 0
-2340 -2339 -2338 0
-2340 2339 2338 0
2340 -2339 2338 0
2340 2339 -2338 0
-2341 2335 -2284 0
-2341 -2335 2284 0
2341 2335 2284 0
2341 -2335 -2284 0
-2342 40 0
-2342 1993 0
2342 -40 -1993 0
-2343 2341 0
-2343 2342 0
2343 -2341 -2342 0
-2344 -2342 -2341 0
-2344 2342 2341 0
2344 -2342 2341 0
2344 2342 -2341 0
-2345 2333 -2288 0
-2345 -2333 2288 0
2345 2333 2288 0
2345 -2333 -2288 0
-2346 40 0
-2346 1998 0
2346 -40 -1998 0
-2347 2345 0
-2347 2346 0
2347 -2345 -2346 0
-2348 -2346 -2345 0
-2348 2346 2345 0
2348 -2346 2345 0
2348 2346 -2345 0
-2349 2331 -2292 0
-2349 -2331 2292 0
2349 2331 2292 0
2349 -2331 -2292 0
-2350 40 0
-2350 2003 0
2350 -40 -2003 0
-2351 2349 0
-2351 2350 0
2351 -2349 -2350 0
-2352 -2350 -2349 0
-2352 2350 2349 0
2352 -2350 2349 0
2352 2350 -2349 0
-2353 2329 -2296 0
-2353 -2329 2296 0
2353 2329 2296 0
2353 -2329 -2296 0
-2354 40 0
-2354 2008 0
2354 -40 -2008 0
-2355 2353 0
-2355 2354 0
2355 -2353 -2354 0
-2356 -2354 -2353 0
-2356 2354 2353 0
2356 -2354 2353 0
2356 2354 -2353 0
-2357 2327 -2300 0
-2357 -2327 2300 0
2357 2327 2300 0
2357 -2327 -2300 0
-2358 40 0
-2358 2013 0
2358 -40 -2013 0
-2359 2357 0
-2359 2358 0
2359 -2357 -2358 0
-2360 -2358 -2357 0
-2360 2358 2357 0
2360 -2358 2357 0
2360 2358 -2357 0
-2361 2325 -2304 0
-2361 -2325 2304 0
2361 2325 2304 0
2361 -2325 -2304 0
-2362 40 0
-2362 2018 0
2362 -40 -2018 0
-2363 2361 0
-2363 2362 0
2363 -2361 -2362 0
-2364 -2362 -2361 0
-2364 2362 2361 0
2364 -2362 2361 0
2364 2362 -2361 0
-2365 2323 -2308 0
-2365 -2323 2308 0
2365 2323 2308 0
2365 -2323 -2308 0
-2366 40 0
-2366 2023 0
2366 -40 -2023 0
-2367 2365 0
-2367 2366 0
2367 -2365 -2366 0
-2368 -2366 -2365 0
-2368 2366 2365 0
2368 -2366 2365 0
2368 2366 -2365 0
-2369 2321 -2312 0
-2369 -2321 2312 0
2369 2321 2312 0
2369 -2321 -2312 0
-2370 40 0
-2370 2028 0
2370 -40 -2028 0
-2371 2369 0
-2371 2370 0
2371 -2369 -2370 0
-2372 -2370 -2369 0
-2372 2370 2369 0
2372 -2370 2369 0
2372 2370 -2369 0
-2373 -2319 -2316 0
-2373 2319 2316 0
2373 -2319 2316 0
2373 2319 -2316 0
-2374 40 0
-2374 2033 0
2374 -40 -2033 0
-2375 2373 0
-2375 2374 0
2375 -2373 -2374 0
-2376 2372 0
-2376 2375 0
2376 -2372 -2375 0
-2377 -2371 0
-2377 -2376 0
2377 2371 2376 0
-2378 2368 0
-2378 -2377 0
2378 -2368 2377 0
-2379 -2367 0
-2379 -2378 0
2379 2367 2378 0
-2380 2364 0
-2380 -2379 0
2380 -2364 2379 0
-2381 -2363 0
-2381 -2380 0
2381 2363 2380 0
-2382 2360 0
-2382 -2381 0
2382 -2360 2381 0
-2383 -2359 0
-2383 -2382 0
2383 2359 2382 0
-2384 2356 0
-2384 -2383 0
2384 -2356 2383 0
-2385 -2355 0
-2385 -2384 0
2385 2355 2384 0
-2386 2352 0
-2386 -2385 0
2386 -2352 2385 0
-2387 -2351 0
-2387 -2386 0
2387 2351 2386 0
-2388 2348 0
-2388 -2387 0
2388 -2348 2387 0
-2389 -2347 0
-2389 -2388 0
2389 2347 2388 0
-2390 2344 0
-2390 -2389 0
2390 -2344 2389 0
-2391 -2343 0
-2391 -2390 0
2391 2343 2390 0
-2392 2391 -2340 0
-2392 -2391 2340 0
2392 2391 2340 0
2392 -2391 -2340 0
-2393 39 0
-2393 1993 0
2393 -39 -1993 0
-2394 -2393 -2392 0
-2394 2393 2392 0
2394 -2393 2392 0
2394 2393 -2392 0
-2395 2389 -2344 0
-2395 -2389 2344 0
2395 2389 2344 0
2395 -2389 -2344 0
-2396 39 0
-2396 1998 0
2396 -39 -1998 0
-2397 2395 0
-2397 2396 0
2397 -2395 -2396 0
-2398 -2396 -2395 0
-2398 2396 2395 0
2398 -2396 2395 0
2398 2396 -2395 0
-2399 2387 -2348 0
-2399 -2387 2348 0
2399 2387 2348 0
2399 -2387 -2348 0
-2400 39 0
-2400 2003 0
2400 -39 -2003 0
-2401 2399 0
-2401 2400 0
2401 -2399 -2400 0
-2402 -2400 -2399 0
-2402 2400 2399 0
2402 -2400 2399 0
2402 2400 -2399 0
-2403 2385 -2352 0
-2403 -2385 2352 0
2403 2385 2352 0
2403 -2385 -2352 0
-2404 39 0
-2404 2008 0
2404 -39 -2008 0
-2405 2403 0
-2405 2404 0
2405 -2403 -2404 0
-2406 -2404 -2403 0
-2406 2404 2403 0
2406 -2404 2403 0
2406 2404 -2403 0
-2407 2383 -2356 0
-2407 -2383 2356 0
2407 2383 2356 0
2407 -2383 -2356 0
-2408 39 0
-2408 2013 0
2408 -39 -2013 0
-2409 2407 0
-2409 2408 0
2409 -2407 -2408 0
-2410 -2408 -2407 0
-2410 2408 2407 0
2410 -2408 2407 0
2410 2408 -2407 0
-2411 2381 -2360 0
-2411 -2381 2360 0
2411 2381 2360 0
2411 -2381 -2360 0
-2412 39 0
-2412 2018 0
2412 -39 -2018 0
-2413 2411 0
-2413 2412 0
2413 -2411 -2412 0
-2414 -2412 -2411 0
-2414 2412 2411 0
2414 -2412 2411 0
2414 2412 -2411 0
-2415 2379 -2364 0
-2415 -2379 2364 0
2415 2379 2364 0
2415 -2379 -2364 0
-2416 39 0
-2416 2023 0
2416 -39 -2023 0
-2417 2415 0
-2417 2416 0
2417 -2415 -2416 0
-2418 -2416 -2415 0
-2418 2416 2415 0
2418 -2416 2415 0
2418 2416 -2415 0
-2419 2377 -2368 0
-2419 -2377 2368 0
2419 2377 2368 0
2419 -2377 -2368 0
-2420 39 0
-2420 2028 0
2420 -39 -2028 0
-2421 2419 0
-2421 2420 0
2421 -2419 -2420 0
-2422 -2420 -2419 0
-2422 2420 2419 0
2422 -2420 2419 0
2422 2420 -2419 0
-2423 -2375 -2372 0
-2423 2375 2372 0
2423 -2375 2372 0
2423 2375 -2372 0
-2424 39 0
-2424 2033 0
2424 -39 -2033 0
-2425 2423 0
-2425 2424 0
2425 -2423 -2424 0
-2426 2422 0
-2426 2425 0
2426 -2422 -2425 0
-2427 -2421 0
-2427 -2426 0
2427 2421 2426 0
-2428 2418 0
-2428 -2427 0
2428 -2418 2427 0
-2429 -2417 0
-2429 -2428 0
2429 2417 2428 0
-2430 2414 0
-2430 -2429 0
2430 -2414 2429 0
-2431 -2413 0
-2431 -2430 0
2431 2413 2430 0
-2432 2410 0
-2432 -2431 0
2432 -2410 2431 0
-2433 -2409 0
-2433 -2432 0
2433 2409 2432 0
-2434 2406 0
-2434 -2433 0
2434 -2406 2433 0
-2435 -2405 0
-2435 -2434 0
2435 2405 2434 0
-2436 2402 0
-2436 -2435 0
2436 -2402 2435 0
-2437 -2401 0
-2437 -2436 0
2437 2401 2436 0
-2438 2398 0
-2438 -2437 0
2438 -2398 2437 0
-2439 -2397 0
-2439 -2438 0
2439 2397 2438 0
-2440 2439 -2394 0
-2440 -2439 2394 0
2440 2439 2394 0
2440 -2439 -2394 0
-2441 38 0
-2441 1998 0
2441 -38 -1998 0
-2442 -2441 -2440 0
-2442 2441 2440 0
2442 -2441 2440 0
2442 2441 -2440 0
-2443 2437 -2398 0
-2443 -2437 2398 0
2443 2437 2398 0
2443 -2437 -2398 0
-2444 38 0
-2444 2003 0
2444 -38 -2003 0
-2445 2443 0
-2445 2444 0
2445 -2443 -2444 0
-2446 -2444 -2443 0
-2446 2444 2443 0
2446 -2444 2443 0
2446 2444 -2443 0
-2447 2435 -2402 0
-2447 -2435 2402 0
2447 2435 2402 0
2447 -2435 -2402 0
-2448 38 0
-2448 2008 0
2448 -38 -2008 0
-2449 2447 0
-2449 2448 0
2449 -2447 -2448 0
-2450 -2448 -2447 0
-2450 2448 2447 0
2450 -2448 2447 0
2450 2448 -2447 0
-2451 2433 -2406 0
-2451 -2433 2406 0
2451 2433 2406 0
2451 -2433 -2406 0
-2452 38 0
-2452 2013 0
2452 -38 -2013 0
-2453 2451 0
-2453 2452 0
2453 -2451 -2452 0
-2454 -2452 -2451 0
-2454 2452 2451 0
2454 -2452 2451 0
2454 2452 -2451 0
-2455 2431 -2410 0
-2455 -2431 2410 0
2455 2431 2410 0
2455 -2431 -2410 0
-2456 38 0
-2456 2018 0
2456 -38 -2018 0
-2457 2455 0
-2457 2456 0
2457 -2455 -2456 0
-2458 -2456 -2455 0
-2458 2456 2455 0
2458 -2456 2455 0
2458 2456 -2455 0
-2459 2429 -2414 0
-2459 -2429 2414 0
2459 2429 2414 0
2459 -2429 -2414 0
-2460 38 0
-2460 2023 0
2460 -38 -2023 0
-2461 2459 0
-2461 2460 0
2461 -2459 -2460 0
-2462 -2460 -2459 0
-2462 2460 2459 0
2462 -2460 2459 0
2462 2460 -2459 0
-2463 2427 -2418 0
-2463 -2427 2418 0
2463 2427 2418 0
2463 -2427 -2418 0
-2464 38 0
-2464 2028 0
2464 -38 -2028 0
-2465 2463 0
-2465 2464 0
2465 -2463 -2464 0
-2466 -2464 -2463 0
-2466 2464 2463 0
2466 -2464 2463 0
2466 2464 -2463 0
-2467 -2425 -2422 0
-2467 2425 2422 0
2467 -2425 2422 0
2467 2425 -2422 0
-2468 38 0
-2468 2033 0
2468 -38 -2033 0
-2469 2467 0
-2469 2468 0
2469 -2467 -2468 0
-2470 2466 0
-2470 2469 0
2470 -2466 -2469 0
-2471 -2465 0
-2471 -2470 0
2471 2465 2470 0
-2472 2462 0
-2472 -2471 0
2472 -2462 2471 0
-2473 -2461 0
-2473 -2472 0
2473 2461 2472 0
-2474 2458 0
-2474 -2473 0
2474 -2458 2473 0
-2475 -2457 0
-2475 -2474 0
2475 2457 2474 0
-2476 2454 0
-2476 -2475 0
2476 -2454 2475 0
-2477 -2453 0
-2477 -2476 0
2477 2453 2476 0
-2478 2450 0
-2478 -2477 0
2478 -2450 2477 0
-2479 -2449 0
-2479 -2478 0
2479 2449 2478 0
-2480 2446 0
-2480 -2479 0
2480 -2446 2479 0
-2481 -2445 0
-2481 -2480 0
2481 2445 2480 0
-2482 2481 -2442 0
-2482 -2481 2442 0
2482 2481 2442 0
2482 -2481 -2442 0
-2483 37 0
-2483 2003 0
2483 -37 -2003 0
-2484 -2483 -2482 0
-2484 2483 2482 0
2484 -2483 2482 0
2484 2483 -2482 0
-2485 2479 -2446 0
-2485 -2479 2446 0
2485 2479 2446 0
2485 -2479 -2446 0
-2486 37 0
-2486 2008 0
2486 -37 -2008 0
-2487 2485 0
-2487 2486 0
2487 -2485 -2486 0
-2488 -2486 -2485 0
-2488 2486 2485 0
2488 -2486 2485 0
2488 2486 -2485 0
-2489 2477 -2450 0
-2489 -2477 2450 0
2489 2477 2450 0
2489 -2477 -2450 0
-2490 37 0
-2490 2013 0
2490 -37 -2013 0
-2491 2489 0
-2491 2490 0
2491 -2489 -2490 0
-2492 -2490 -2489 0
-2492 2490 2489 0
2492 -2490 2489 0
2492 2490 -2489 0
-2493 2475 -2454 0
-2493 -2475 2454 0
2493 2475 2454 0
2493 -2475 -2454 0
-2494 37 0
-2494 2018 0
2494 -37 -2018 0
-2495 2493 0
-2495 2494 0
2495 -2493 -2494 0
-2496 -2494 -2493 0
-2496 2494 2493 0
2496 -2494 2493 0
2496 2494 -2493 0
-2497 2473 -2458 0
-2497 -2473 2458 0
2497 2473 2458 0
2497 -2473 -2458 0
-2498 37 0
-2498 2023 0
2498 -37 -2023 0
-2499 2497 0
-2499 2498 0
2499 -2497 -2498 0
-2500 -2498 -2497 0
-2500 2498 2497 0
2500 -2498 2497 0
2500 2498 -2497 0
-2501 2471 -2462 0
-2501 -2471 2462 0
2501 2471 2462 0
2501 -2471 -2462 0
-2502 37 0
-2502 2028 0
2502 -37 -2028 0
-2503 2501 0
-2503 2502 0
2503 -2501 -2502 0
-2504 -2502 -2501 0
-2504 2502 2501 0
2504 -2502 2501 0
2504 2502 -2501 0
-2505 -2469 -2466 0
-2505 2469 2466 0
2505 -2469 2466 0
2505 2469 -2466 0
-2506 37 0
-2506 2033 0
2506 -37 -2033 0
-2507 2505 0
-2507 2506 0
2507 -2505 -2506 0
-2508 2504 0
-2508 2507 0
2508 -2504 -2507 0
-2509 -2503 0
-2509 -2508 0
2509 2503 2508 0
-2510 2500 0
-2510 -2509 0
2510 -2500 2509 0
-2511 -2499 0
-2511 -2510 0
2511 2499 2510 0
-2512 2496 0
-2512 -2511 0
2512 -2496 2511 0
-2513 -2495 0
-2513 -2512 0
2513 2495 2512 0
-2514 2492 0
-2514 -2513 0
2514 -2492 2513 0
-2515 -2491 0
-2515 -2514 0
2515 2491 2514 0
-2516 2488 0
-2516 -2515 0
2516 -2488 2515 0
-2517 -2487 0
-2517 -2516 0
2517 2487 2516 0
-2518 2517 -2484 0
-2518 -2517 2484 0
2518 2517 2484 0
2518 -2517 -2484 0
-2519 36 0
-2519 2008 0
2519 -36 -2008 0
-2520 -2519 -2518 0
-2520 2519 2518 0
2520 -2519 2518 0
2520 2519 -2518 0
-2521 2515 -2488 0
-2521 -2515 2488 0
2521 2515 2488 0
2521 -2515 -2488 0
-2522 36 0
-2522 2013 0
2522 -36 -2013 0
-2523 2521 0
-2523 2522 0
2523 -2521 -2522 0
-2524 -2522 -2521 0
-2524 2522 2521 0
2524 -2522 2521 0
2524 2522 -2521 0
-2525 2513 -2492 0
-2525 -2513 2492 0
2525 2513 2492 0
2525 -2513 -2492 0
-2526 36 0
-2526 2018 0
2526 -36 -2018 0
-2527 2525 0
-2527 2526 0
2527 -2525 -2526 0
-2528 -2526 -2525 0
-2528 2526 2525 0
2528 -2526 2525 0
2528 2526 -2525 0
-2529 2511 -2496 0
-2529 -2511 2496 0
2529 2511 2496 0
2529 -2511 -2496 0
-2530 36 0
-2530 2023 0
2530 -36 -2023 0
-2531 2529 0
-2531 2530 0
2531 -2529 -2530 0
-2532 -2530 -2529 0
-2532 2530 2529 0
2532 -2530 2529 0
2532 2530 -2529 0
-2533 2509 -2500 0
-2533 -2509 2500 0
2533 2509 2500 0
2533 -2509 -2500 0
-2534 36 0
-2534 2028 0
2534 -36 -2028 0
-2535 2533 0
-2535 2534 0
2535 -2533 -2534 0
-2536 -2534 -2533 0
-2536 2534 2533 0
2536 -2534 2533 0
2536 2534 -2533 0
-2537 -2507 -2504 0
-2537 2507 2504 0
2537 -2507 2504 0
2537 2507 -2504 0
-2538 36 0
-2538 2033 0
2538 -36 -2033 0
-2539 2537 0
-2539 2538 0
2539 -2537 -2538 0
-2540 2536 0
-2540 2539 0
2540 -2536 -2539 0
-2541 -2535 0
-2541 -2540 0
2541 2535 2540 0
-2542 2532 0
-2542 -2541 0
2542 -2532 2541 0
-2543 -2531 0
-2543 -2542 0
2543 2531 2542 0
-2544 2528 0
-2544 -2543 0
2544 -2528 2543 0
-2545 -2527 0
-2545 -2544 0
2545 2527 2544 0
-2546 2524 0
-2546 -2545 0
2546 -2524 2545 0
-2547 -2523 0
-2547 -2546 0
2547 2523 2546 0
-2548 2547 -2520 0
-2548 -2547 2520 0
2548 2547 2520 0
2548 -2547 -2520 0
-2549 35 0
-2549 2013 0
2549 -35 -2013 0
-2550 -2549 -2548 0
-2550 2549 2548 0
2550 -2549 2548 0
2550 2549 -2548 0
-2551 2545 -2524 0
-2551 -2545 2524 0
2551 2545 2524 0
2551 -2545 -2524 0
-2552 35 0
-2552 2018 0
2552 -35 -2018 0
-2553 2551 0
-2553 2552 0
2553 -2551 -2552 0
-2554 -2552 -2551 0
-2554 2552 2551 0
2554 -2552 2551 0
2554 2552 -2551 0
-2555 2543 -2528 0
-2555 -2543 2528 0
2555 2543 2528 0
2555 -2543 -2528 0
-2556 35 0
-2556 2023 0
2556 -35 -2023 0
-2557 2555 0
-2557 2556 0
2557 -2555 -2556 0
-2558 -2556 -2555 0
-2558 2556 2555 0
2558 -2556 2555 0
2558 2556 -2555 0
-2559 2541 -2532 0
-2559 -2541 2532 0
2559 2541 2532 0
2559 -2541 -2532 0
-2560 35 0
-2560 2028 0
2560 -35 -2028 0
-2561 2559 0
-2561 2560 0
2561 -2559 -2560 0
-2562 -2560 -2559 0
-2562 2560 2559 0
2562 -2560 2559 0
2562 2560 -2559 0
-2563 -2539 -2536 0
-2563 2539 2536 0
2563 -2539 2536 0
2563 2539 -2536 0
-2564 35 0
-2564 2033 0
2564 -35 -2033 0
-2565 2563 0
-2565 2564 0
2565 -2563 -2564 0
-2566 2562 0
-2566 2565 0
2566 -2562 -2565 0
-2567 -2561 0
-2567 -2566 0
2567 2561 2566 0
-2568 2558 0
-2568 -2567 0
2568 -2558 2567 0
-2569 -2557 0
-2569 -2568 0
2569 2557 2568 0
-2570 2554 0
-2570 -2569 0
2570 -2554 2569 0
-2571 -2553 0
-2571 -2570 0
2571 2553 2570 0
-2572 2571 -2550 0
-2572 -2571 2550 0
2572 2571 2550 0
2572 -2571 -2550 0
-2573 34 0
-2573 2018 0
2573 -34 -2018 0
-2574 -2573 -2572 0
-2574 2573 2572 0
2574 -2573 2572 0
2574 2573 -2572 0
-2575 2569 -2554 0
-2575 -2569 2554 0
2575 2569 2554 0
2575 -2569 -2554 0
-2576 34 0
-2576 2023 0
2576 -34 -2023 0
-2577 2575 0
-2577 2576 0
2577 -2575 -2576 0
-2578 -2576 -2575 0
-2578 2576 2575 0
2578 -2576 2575 0
2578 2576 -2575 0
-2579 2567 -2558 0
-2579 -2567 2558 0
2579 2567 2558 0
2579 -2567 -2558 0
-2580 34 0
-2580 2028 0
2580 -34 -2028 0
-2581 2579 0
-2581 2580 0
2581 -2579 -2580 0
-2582 -2580 -2579 0
-2582 2580 2579 0
2582 -2580 2579 0
2582 2580 -2579 0
-2583 -2565 -2562 0
-2583 2565 2562 0
2583 -2565 2562 0
2583 2565 -2562 0
-2584 34 0
-2584 2033 0
2584 -34 -2033 0
-2585 2583 0
-2585 2584 0
2585 -2583 -2584 0
-2586 2582 0
-2586 2585 0
2586 -2582 -2585 0
-2587 -2581 0
-2587 -2586 0
2587 2581 2586 0
-2588 2578 0
-2588 -2587 0
2588 -2578 2587 0
-2589 -2577 0
-2589 -2588 0
2589 2577 2588 0
-2590 2589 -2574 0
-2590 -2589 2574 0
2590 2589 2574 0
2590 -2589 -2574 0
-2591 33 0
-2591 2023 0
2591 -33 -2023 0
-2592 -2591 -2590 0
-2592 2591 2590 0
2592 -2591 2590 0
2592 2591 -2590 0
-2593 2587 -2578 0
-2593 -2587 2578 0
2593 2587 2578 0
2593 -2587 -2578 0
-2594 33 0
-2594 2028 0
2594 -33 -2028 0
-2595 2593 0
-2595 2594 0
2595 -2593 -2594 0
-2596 -2594 -2593 0
-2596 2594 2593 0
2596 -2594 2593 0
2596 2594 -2593 0
-2597 -2585 -2582 0
-2597 2585 2582 0
2597 -2585 2582 0
2597 2585 -2582 0
-2598 33 0
-2598 2033 0
2598 -33 -2033 0
-2599 2597 0
-2599 2598 0
2599 -2597 -2598 0
-2600 2596 0
-2600 2599 0
2600 -2596 -2599 0
-2601 -2595 0
-2601 -2600 0
2601 2595 2600 0
-2602 2601 -2592 0
-2602 -2601 2592 0
2602 2601 2592 0
2602 -2601 -2592 0
-2603 32 0
-2603 2028 0
2603 -32 -2028 0
-2604 -2603 -2602 0
-2604 2603 2602 0
2604 -2603 2602 0
2604 2603 -2602 0
-2605 -2599 -2596 0
-2605 2599 2596 0
2605 -2599 2596 0
2605 2599 -2596 0
-2606 32 0
-2606 2033 0
2606 -32 -2033 0
-2607 2605 0
-2607 2606 0
2607 -2605 -2606 0
-2608 -2607 -2604 0
-2608 2607 2604 0
2608 -2607 2604 0
2608 2607 -2604 0
-2609 31 0
-2609 2033 0
2609 -31 -2033 0
-2610 -2609 -2608 0
-2610 2609 2608 0
2610 -2609 2608 0
2610 2609 -2608 0
2611 2610 1329 0
2611 -2610 -1329 0
-2612 -1267 -1266 0
-2612 1267 1266 0
2612 -1267 1266 0
2612 1267 -1266 0
-2613 -2606 -2605 0
-2613 2606 2605 0
2613 -2606 2605 0
2613 2606 -2605 0
2614 2613 2612 0
2614 -2613 -2612 0
2615 -2611 -2614 0
-2616 -1178 -1177 0
-2616 1178 1177 0
2616 -1178 1177 0
2616 1178 -1177 0
-2617 -2598 -2597 0
-2617 2598 2597 0
2617 -2598 2597 0
2617 2598 -2597 0
2618 2617 2616 0
2618 -2617 -2616 0
2619 -2615 -2618 0
-2620 -1089 -1088 0
-2620 1089 1088 0
2620 -1089 1088 0
2620 1089 -1088 0
-2621 -2584 -2583 0
-2621 2584 2583 0
2621 -2584 2583 0
2621 2584 -2583 0
2622 2621 2620 0
2622 -2621 -2620 0
2623 -2619 -2622 0
-2624 -1000 -999 0
-2624 1000 999 0
2624 -1000 999 0
2624 1000 -999 0
-2625 -2564 -2563 0
-2625 2564 2563 0
2625 -2564 2563 0
2625 2564 -2563 0
2626 2625 2624 0
2626 -2625 -2624 0
2627 -2623 -2626 0
-2628 -911 -910 0
-2628 911 910 0
2628 -911 910 0
2628 911 -910 0
-2629 -2538 -2537 0
-2629 2538 2537 0
2629 -2538 2537 0
2629 2538 -2537 0
2630 2629 2628 0
2630 -2629 -2628 0
2631 -2627 -2630 0
-2632 -822 -821 0
-2632 822 821 0
2632 -822 821 0
2632 822 -821 0
-2633 -2506 -2505 0
-2633 2506 2505 0
2633 -2506 2505 0
2633 2506 -2505 0
2634 2633 2632 0
2634 -2633 -2632 0
2635 -2631 -2634 0
-2636 -733 -732 0
-2636 733 732 0
2636 -733 732 0
2636 733 -732 0
-2637 -2468 -2467 0
-2637 2468 2467 0
2637 -2468 2467 0
2637 2468 -2467 0
2638 2637 2636 0
2638 -2637 -2636 0
2639 -2635 -2638 0
-2640 -644 -643 0
-2640 644 643 0
2640 -644 643 0
2640 644 -643 0
-2641 -2424 -2423 0
-2641 2424 2423 0
2641 -2424 2423 0
2641 2424 -2423 0
2642 2641 2640 0
2642 -2641 -2640 0
2643 -2639 -2642 0
-2644 -555 -554 0
-2644 555 554 0
2644 -555 554 0
2644 555 -554 0
-2645 -2374 -2373 0
-2645 2374 2373 0
2645 -2374 2373 0
2645 2374 -2373 0
2646 2645 2644 0
2646 -2645 -2644 0
2647 -2643 -2646 0
-2648 -466 -465 0
-2648 466 465 0
2648 -466 465 0
2648 466 -465 0
-2649 -2318 -2317 0
-2649 2318 2317 0
2649 -2318 2317 0
2649 2318 -2317 0
2650 2649 2648 0
2650 -2649 -2648 0
2651 -2647 -2650 0
-2652 -377 -376 0
-2652 377 376 0
2652 -377 376 0
2652 377 -376 0
-2653 -2256 -2255 0
-2653 2256 2255 0
2653 -2256 2255 0
2653 2256 -2255 0
2654 2653 2652 0
2654 -2653 -2652 0
2655 -2651 -2654 0
-2656 -288 -287 0
-2656 288 287 0
2656 -288 287 0
2656 288 -287 0
-2657 -2188 -2187 0
-2657 2188 2187 0
2657 -2188 2187 0
2657 2188 -2187 0
2658 2657 2656 0
2658 -2657 -2656 0
2659 -2655 -2658 0
-2660 -199 -198 0
-2660 199 198 0
2660 -199 198 0
2660 199 -198 0
-2661 -2114 -2113 0
-2661 2114 2113 0
2661 -2114 2113 0
2661 2114 -2113 0
2662 2661 2660 0
2662 -2661 -2660 0
2663 -2659 -2662 0
-2664 -110 -109 0
-2664 110 109 0
2664 -110 109 0
2664 110 -109 0
-2665 -2034 -2032 0
-2665 2034 2032 0
2665 -2034 2032 0
2665 2034 -2032 0
2666 2665 2664 0
2666 -2665 -2664 0
2667 -2663 -2666 0
-2668 48 0
-2668 49 0
2668 -48 -49 0
-2669 47 0
-2669 2033 0
2669 -47 -2033 0
2670 2669 2668 0
2670 -2669 -2668 0
2671 -2667 -2670 0
2672 -44 -45 0
-2673 -43 0
-2673 -2672 0
2674 -42 2673 0
2675 -41 -2674 0
2676 -40 -2675 0
-2677 -39 0
-2677 -2676 0
-2678 -38 0
-2678 2677 0
2679 -37 2678 0
2680 -36 -2679 0
-2681 -35 0
-2681 -2680 0
-2682 -34 0
-2682 2681 0
2683 -33 2682 0
-2684 -32 0
-2684 -2683 0
2685 -31 2684 0
2686 -14 -15 0
-2687 -13 0
-2687 -2686 0
2688 -12 2687 0
2689 -11 -2688 0
2690 -10 -2689 0
-2691 -9 0
-2691 -2690 0
-2692 -8 0
-2692 2691 0
2693 -7 2692 0
2694 -6 -2693 0
-2695 -5 0
-2695 -2694 0
-2696 -4 0
-2696 2695 0
2697 -3 2696 0
-2698 -2 0
-2698 -2697 0
2699 -1 2698 0
2700 -29 -30 0
-2701 -28 0
-2701 -2700 0
2702 -27 2701 0
2703 -26 -2702 0
2704 -25 -2703 0
-2705 -24 0
-2705 -2704 0
-2706 -23 0
-2706 2705 0
2707 -22 2706 0
2708 -21 -2707 0
-2709 -20 0
-2709 -2708 0
-2710 -19 0
-2710 2709 0
2711 -18 2710 0
-2712 -17 0
-2712 -2711 0
2713 -16 2712 0
-2714 -2699 0
-2714 -2713 0
-2715 -2685 0
-2715 2714 0
-2716 -2671 0
-2716 2715 0
2716 0
