p cnf 951 2897
53 40 1 0
53 -40 -1 0
54 41 28 0
54 -41 -28 0
55 -53 -54 0
56 42 29 0
56 -42 -29 0
57 -55 -56 0
58 43 30 0
58 -43 -30 0
59 -57 -58 0
60 44 31 0
60 -44 -31 0
61 -59 -60 0
62 45 32 0
62 -45 -32 0
63 -61 -62 0
64 46 33 0
64 -46 -33 0
65 -63 -64 0
66 47 34 0
66 -47 -34 0
67 -65 -66 0
68 48 35 0
68 -48 -35 0
69 -67 -68 0
70 49 36 0
70 -49 -36 0
71 -69 -70 0
72 50 37 0
72 -50 -37 0
73 -71 -72 0
74 51 38 0
74 -51 -38 0
75 -73 -74 0
76 52 39 0
76 -52 -39 0
77 -75 -76 0
-78 2 0
-78 3 0
78 -2 -3 0
-79 4 0
-79 5 0
79 -4 -5 0
-80 -79 -78 0
-80 79 78 0
80 -79 78 0
80 79 -78 0
-81 3 0
-81 4 0
81 -3 -4 0
-82 5 0
-82 6 0
82 -5 -6 0
-83 81 0
-83 82 0
83 -81 -82 0
-84 -82 -81 0
-84 82 81 0
84 -82 81 0
84 82 -81 0
-85 3 0
-85 6 0
85 -3 -6 0
-86 5 0
-86 7 0
86 -5 -7 0
-87 85 0
-87 86 0
87 -85 -86 0
-88 -86 -85 0
-88 86 85 0
88 -86 85 0
88 86 -85 0
-89 3 0
-89 7 0
89 -3 -7 0
-90 5 0
-90 8 0
90 -5 -8 0
-91 89 0
-91 90 0
91 -89 -90 0
-92 -90 -89 0
-92 90 89 0
92 -90 89 0
92 90 -89 0
-93 3 0
-93 8 0
93 -3 -8 0
-94 5 0
-94 9 0
94 -5 -9 0
-95 93 0
-95 94 0
95 -93 -94 0
-96 -94 -93 0
-96 94 93 0
96 -94 93 0
96 94 -93 0
-97 3 0
-97 9 0
97 -3 -9 0
-98 5 0
-98 10 0
98 -5 -10 0
-99 97 0
-99 98 0
99 -97 -98 0
-100 -98 -97 0
-100 98 97 0
100 -98 97 0
100 98 -97 0
-101 3 0
-101 10 0
101 -3 -10 0
-102 5 0
-102 11 0
102 -5 -11 0
-103 101 0
-103 102 0
103 -101 -102 0
-104 -102 -101 0
-104 102 101 0
104 -102 101 0
104 102 -101 0
-105 3 0
-105 11 0
105 -3 -11 0
-106 5 0
-106 12 0
106 -5 -12 0
-107 105 0
-107 106 0
107 -105 -106 0
-108 -106 -105 0
-108 106 105 0
108 -106 105 0
108 106 -105 0
-109 3 0
-109 12 0
109 -3 -12 0
-110 5 0
-110 13 0
110 -5 -13 0
-111 109 0
-111 110 0
111 -109 -110 0
-112 -110 -109 0
-112 110 109 0
112 -110 109 0
112 110 -109 0
-113 3 0
-113 13 0
113 -3 -13 0
-114 5 0
-114 14 0
114 -5 -14 0
-115 113 0
-115 114 0
115 -113 -114 0
-116 -114 -113 0
-116 114 113 0
116 -114 113 0
116 114 -113 0
-117 3 0
-117 14 0
117 -3 -14 0
-118 5 0
-118 15 0
118 -5 -15 0
-119 117 0
-119 118 0
119 -117 -118 0
-120 -118 -117 0
-120 118 117 0
120 -118 117 0
120 118 -117 0
-121 3 0
-121 15 0
121 -3 -15 0
-122 5 0
-122 16 0
122 -5 -16 0
-123 121 0
-123 122 0
123 -121 -122 0
-124 120 0
-124 123 0
124 -120 -123 0
-125 -119 0
-125 -124 0
125 119 124 0
-126 116 0
-126 -125 0
126 -116 125 0
-127 -115 0
-127 -126 0
127 115 126 0
-128 112 0
-128 -127 0
128 -112 127 0
-129 -111 0
-129 -128 0
129 111 128 0
-130 108 0
-130 -129 0
130 -108 129 0
-131 -107 0
-131 -130 0
131 107 130 0
-132 104 0
-132 -131 0
132 -104 131 0
-133 -103 0
-133 -132 0
133 103 132 0
-134 100 0
-134 -133 0
134 -100 133 0
-135 -99 0
-135 -134 0
135 99 134 0
-136 96 0
-136 -135 0
136 -96 135 0
-137 -95 0
-137 -136 0
137 95 136 0
-138 92 0
-138 -137 0
138 -92 137 0
-139 -91 0
-139 -138 0
139 91 138 0
-140 88 0
-140 -139 0
140 -88 139 0
-141 -87 0
-141 -140 0
141 87 140 0
-142 84 0
-142 -141 0
142 -84 141 0
-143 -83 0
-143 -142 0
143 83 142 0
-144 143 -80 0
-144 -143 80 0
144 143 80 0
144 -143 -80 0
-145 6 0
-145 17 0
145 -6 -17 0
-146 -145 -144 0
-146 145 144 0
146 -145 144 0
146 145 -144 0
-147 141 -84 0
-147 -141 84 0
147 141 84 0
147 -141 -84 0
-148 7 0
-148 17 0
148 -7 -17 0
-149 147 0
-149 148 0
149 -147 -148 0
-150 -148 -147 0
-150 148 147 0
150 -148 147 0
150 148 -147 0
-151 139 -88 0
-151 -139 88 0
151 139 88 0
151 -139 -88 0
-152 8 0
-152 17 0
152 -8 -17 0
-153 151 0
-153 152 0
153 -151 -152 0
-154 -152 -151 0
-154 152 151 0
154 -152 151 0
154 152 -151 0
-155 137 -92 0
-155 -137 92 0
155 137 92 0
155 -137 -92 0
-156 9 0
-156 17 0
156 -9 -17 0
-157 155 0
-157 156 0
157 -155 -156 0
-158 -156 -155 0
-158 156 155 0
158 -156 155 0
158 156 -155 0
-159 135 -96 0
-159 -135 96 0
159 135 96 0
159 -135 -96 0
-160 10 0
-160 17 0
160 -10 -17 0
-161 159 0
-161 160 0
161 -159 -160 0
-162 -160 -159 0
-162 160 159 0
162 -160 159 0
162 160 -159 0
-163 133 -100 0
-163 -133 100 0
163 133 100 0
163 -133 -100 0
-164 11 0
-164 17 0
164 -11 -17 0
-165 163 0
-165 164 0
165 -163 -164 0
-166 -164 -163 0
-166 164 163 0
166 -164 163 0
166 164 -163 0
-167 131 -104 0
-167 -131 104 0
167 131 104 0
167 -131 -104 0
-168 12 0
-168 17 0
168 -12 -17 0
-169 167 0
-169 168 0
169 -167 -168 0
-170 -168 -167 0
-170 168 167 0
170 -168 167 0
170 168 -167 0
-171 129 -108 0
-171 -129 108 0
171 129 108 0
171 -129 -108 0
-172 13 0
-172 17 0
172 -13 -17 0
-173 171 0
-173 172 0
173 -171 -172 0
-174 -172 -171 0
-174 172 171 0
174 -172 171 0
174 172 -171 0
-175 127 -112 0
-175 -127 112 0
175 127 112 0
175 -127 -112 0
-176 14 0
-176 17 0
176 -14 -17 0
-177 175 0
-177 176 0
177 -175 -176 0
-178 -176 -175 0
-178 176 175 0
178 -176 175 0
178 176 -175 0
-179 125 -116 0
-179 -125 116 0
179 125 116 0
179 -125 -116 0
-180 15 0
-180 17 0
180 -15 -17 0
-181 179 0
-181 180 0
181 -179 -180 0
-182 -180 -179 0
-182 180 179 0
182 -180 179 0
182 180 -179 0
-183 -123 -120 0
-183 123 120 0
183 -123 120 0
183 123 -120 0
-184 16 0
-184 17 0
184 -16 -17 0
-185 183 0
-185 184 0
185 -183 -184 0
-186 182 0
-186 185 0
186 -182 -185 0
-187 -181 0
-187 -186 0
187 181 186 0
-188 178 0
-188 -187 0
188 -178 187 0
-189 -177 0
-189 -188 0
189 177 188 0
-190 174 0
-190 -189 0
190 -174 189 0
-191 -173 0
-191 -190 0
191 173 190 0
-192 170 0
-192 -191 0
192 -170 191 0
-193 -169 0
-193 -192 0
193 169 192 0
-194 166 0
-194 -193 0
194 -166 193 0
-195 -165 0
-195 -194 0
195 165 194 0
-196 162 0
-196 -195 0
196 -162 195 0
-197 -161 0
-197 -196 0
197 161 196 0
-198 158 0
-198 -197 0
198 -158 197 0
-199 -157 0
-199 -198 0
199 157 198 0
-200 154 0
-200 -199 0
200 -154 199 0
-201 -153 0
-201 -200 0
201 153 200 0
-202 150 0
-202 -201 0
202 -150 201 0
-203 -149 0
-203 -202 0
203 149 202 0
-204 203 -146 0
-204 -203 146 0
204 203 146 0
204 -203 -146 0
-205 7 0
-205 18 0
205 -7 -18 0
-206 -205 -204 0
-206 205 204 0
206 -205 204 0
206 205 -204 0
-207 201 -150 0
-207 -201 150 0
207 201 150 0
207 -201 -150 0
-208 8 0
-208 18 0
208 -8 -18 0
-209 207 0
-209 208 0
209 -207 -208 0
-210 -208 -207 0
-210 208 207 0
210 -208 207 0
210 208 -207 0
-211 199 -154 0
-211 -199 154 0
211 199 154 0
211 -199 -154 0
-212 9 0
-212 18 0
212 -9 -18 0
-213 211 0
-213 212 0
213 -211 -212 0
-214 -212 -211 0
-214 212 211 0
214 -212 211 0
214 212 -211 0
-215 197 -158 0
-215 -197 158 0
215 197 158 0
215 -197 -158 0
-216 10 0
-216 18 0
216 -10 -18 0
-217 215 0
-217 216 0
217 -215 -216 0
-218 -216 -215 0
-218 216 215 0
218 -216 215 0
218 216 -215 0
-219 195 -162 0
-219 -195 162 0
219 195 162 0
219 -195 -162 0
-220 11 0
-220 18 0
220 -11 -18 0
-221 219 0
-221 220 0
221 -219 -220 0
-222 -220 -219 0
-222 220 219 0
222 -220 219 0
222 220 -219 0
-223 193 -166 0
-223 -193 166 0
223 193 166 0
223 -193 -166 0
-224 12 0
-224 18 0
224 -12 -18 0
-225 223 0
-225 224 0
225 -223 -224 0
-226 -224 -223 0
-226 224 223 0
226 -224 223 0
226 224 -223 0
-227 191 -170 0
-227 -191 170 0
227 191 170 0
227 -191 -170 0
-228 13 0
-228 18 0
228 -13 -18 0
-229 227 0
-229 228 0
229 -227 -228 0
-230 -228 -227 0
-230 228 227 0
230 -228 227 0
230 228 -227 0
-231 189 -174 0
-231 -189 174 0
231 189 174 0
231 -189 -174 0
-232 14 0
-232 18 0
232 -14 -18 0
-233 231 0
-233 232 0
233 -231 -232 0
-234 -232 -231 0
-234 232 231 0
234 -232 231 0
234 232 -231 0
-235 187 -178 0
-235 -187 178 0
235 187 178 0
235 -187 -178 0
-236 15 0
-236 18 0
236 -15 -18 0
-237 235 0
-237 236 0
237 -235 -236 0
-238 -236 -235 0
-238 236 235 0
238 -236 235 0
238 236 -235 0
-239 -185 -182 0
-239 185 182 0
239 -185 182 0
239 185 -182 0
-240 16 0
-240 18 0
240 -16 -18 0
-241 239 0
-241 240 0
241 -239 -240 0
-242 238 0
-242 241 0
242 -238 -241 0
-243 -237 0
-243 -242 0
243 237 242 0
-244 234 0
-244 -243 0
244 -234 243 0
-245 -233 0
-245 -244 0
245 233 244 0
-246 230 0
-246 -245 0
246 -230 245 0
-247 -229 0
-247 -246 0
247 229 246 0
-248 226 0
-248 -247 0
248 -226 247 0
-249 -225 0
-249 -248 0
249 225 248 0
-250 222 0
-250 -249 0
250 -222 249 0
-251 -221 0
-251 -250 0
251 221 250 0
-252 218 0
-252 -251 0
252 -218 251 0
-253 -217 0
-253 -252 0
253 217 252 0
-254 214 0
-254 -253 0
254 -214 253 0
-255 -213 0
-255 -254 0
255 213 254 0
-256 210 0
-256 -255 0
256 -210 255 0
-257 -209 0
-257 -256 0
257 209 256 0
-258 257 -206 0
-258 -257 206 0
258 257 206 0
258 -257 -206 0
-259 8 0
-259 19 0
259 -8 -19 0
-260 -259 -258 0
-260 259 258 0
260 -259 258 0
260 259 -258 0
-261 255 -210 0
-261 -255 210 0
261 255 210 0
261 -255 -210 0
-262 9 0
-262 19 0
262 -9 -19 0
-263 261 0
-263 262 0
263 -261 -262 0
-264 -262 -261 0
-264 262 261 0
264 -262 261 0
264 262 -261 0
-265 253 -214 0
-265 -253 214 0
265 253 214 0
265 -253 -214 0
-266 10 0
-266 19 0
266 -10 -19 0
-267 265 0
-267 266 0
267 -265 -266 0
-268 -266 -265 0
-268 266 265 0
268 -266 265 0
268 266 -265 0
-269 251 -218 0
-269 -251 218 0
269 251 218 0
269 -251 -218 0
-270 11 0
-270 19 0
270 -11 -19 0
-271 269 0
-271 270 0
271 -269 -270 0
-272 -270 -269 0
-272 270 269 0
272 -270 269 0
272 270 -269 0
-273 249 -222 0
-273 -249 222 0
273 249 222 0
273 -249 -222 0
-274 12 0
-274 19 0
274 -12 -19 0
-275 273 0
-275 274 0
275 -273 -274 0
-276 -274 -273 0
-276 274 273 0
276 -274 273 0
276 274 -273 0
-277 247 -226 0
-277 -247 226 0
277 247 226 0
277 -247 -226 0
-278 13 0
-278 19 0
278 -13 -19 0
-279 277 0
-279 278 0
279 -277 -278 0
-280 -278 -277 0
-280 278 277 0
280 -278 277 0
280 278 -277 0
-281 245 -230 0
-281 -245 230 0
281 245 230 0
281 -245 -230 0
-282 14 0
-282 19 0
282 -14 -19 0
-283 281 0
-283 282 0
283 -281 -282 0
-284 -282 -281 0
-284 282 281 0
284 -282 281 0
284 282 -281 0
-285 243 -234 0
-285 -243 234 0
285 243 234 0
285 -243 -234 0
-286 15 0
-286 19 0
286 -15 -19 0
-287 285 0
-287 286 0
287 -285 -286 0
-288 -286 -285 0
-288 286 285 0
288 -286 285 0
288 286 -285 0
-289 -241 -238 0
-289 241 238 0
289 -241 238 0
289 241 -238 0
-290 16 0
-290 19 0
290 -16 -19 0
-291 289 0
-291 290 0
291 -289 -290 0
-292 288 0
-292 291 0
292 -288 -291 0
-293 -287 0
-293 -292 0
293 287 292 0
-294 284 0
-294 -293 0
294 -284 293 0
-295 -283 0
-295 -294 0
295 283 294 0
-296 280 0
-296 -295 0
296 -280 295 0
-297 -279 0
-297 -296 0
297 279 296 0
-298 276 0
-298 -297 0
298 -276 297 0
-299 -275 0
-299 -298 0
299 275 298 0
-300 272 0
-300 -299 0
300 -272 299 0
-301 -271 0
-301 -300 0
301 271 300 0
-302 268 0
-302 -301 0
302 -268 301 0
-303 -267 0
-303 -302 0
303 267 302 0
-304 264 0
-304 -303 0
304 -264 303 0
-305 -263 0
-305 -304 0
305 263 304 0
-306 305 -260 0
-306 -305 260 0
306 305 260 0
306 -305 -260 0
-307 9 0
-307 20 0
307 -9 -20 0
-308 -307 -306 0
-308 307 306 0
308 -307 306 0
308 307 -306 0
-309 303 -264 0
-309 -303 264 0
309 303 264 0
309 -303 -264 0
-310 10 0
-310 20 0
310 -10 -20 0
-311 309 0
-311 310 0
311 -309 -310 0
-312 -310 -309 0
-312 310 309 0
312 -310 309 0
312 310 -309 0
-313 301 -268 0
-313 -301 268 0
313 301 268 0
313 -301 -268 0
-314 11 0
-314 20 0
314 -11 -20 0
-315 313 0
-315 314 0
315 -313 -314 0
-316 -314 -313 0
-316 314 313 0
316 -314 313 0
316 314 -313 0
-317 299 -272 0
-317 -299 272 0
317 299 272 0
317 -299 -272 0
-318 12 0
-318 20 0
318 -12 -20 0
-319 317 0
-319 318 0
319 -317 -318 0
-320 -318 -317 0
-320 318 317 0
320 -318 317 0
320 318 -317 0
-321 297 -276 0
-321 -297 276 0
321 297 276 0
321 -297 -276 0
-322 13 0
-322 20 0
322 -13 -20 0
-323 321 0
-323 322 0
323 -321 -322 0
-324 -322 -321 0
-324 322 321 0
324 -322 321 0
324 322 -321 0
-325 295 -280 0
-325 -295 280 0
325 295 280 0
325 -295 -280 0
-326 14 0
-326 20 0
326 -14 -20 0
-327 325 0
-327 326 0
327 -325 -326 0
-328 -326 -325 0
-328 326 325 0
328 -326 325 0
328 326 -325 0
-329 293 -284 0
-329 -293 284 0
329 293 284 0
329 -293 -284 0
-330 15 0
-330 20 0
330 -15 -20 0
-331 329 0
-331 330 0
331 -329 -330 0
-332 -330 -329 0
-332 330 329 0
332 -330 329 0
332 330 -329 0
-333 -291 -288 0
-333 291 288 0
333 -291 288 0
333 291 -288 0
-334 16 0
-334 20 0
334 -16 -20 0
-335 333 0
-335 334 0
335 -333 -334 0
-336 332 0
-336 335 0
336 -332 -335 0
-337 -331 0
-337 -336 0
337 331 336 0
-338 328 0
-338 -337 0
338 -328 337 0
-339 -327 0
-339 -338 0
339 327 338 0
-340 324 0
-340 -339 0
340 -324 339 0
-341 -323 0
-341 -340 0
341 323 340 0
-342 320 0
-342 -341 0
342 -320 341 0
-343 -319 0
-343 -342 0
343 319 342 0
-344 316 0
-344 -343 0
344 -316 343 0
-345 -315 0
-345 -344 0
345 315 344 0
-346 312 0
-346 -345 0
346 -312 345 0
-347 -311 0
-347 -346 0
347 311 346 0
-348 347 -308 0
-348 -347 308 0
348 347 308 0
348 -347 -308 0
-349 10 0
-349 21 0
349 -10 -21 0
-350 -349 -348 0
-350 349 348 0
350 -349 348 0
350 349 -348 0
-351 345 -312 0
-351 -345 312 0
351 345 312 0
351 -345 -312 0
-352 11 0
-352 21 0
352 -11 -21 0
-353 351 0
-353 352 0
353 -351 -352 0
-354 -352 -351 0
-354 352 351 0
354 -352 351 0
354 352 -351 0
-355 343 -316 0
-355 -343 316 0
355 343 316 0
355 -343 -316 0
-356 12 0
-356 21 0
356 -12 -21 0
-357 355 0
-357 356 0
357 -355 -356 0
-358 -356 -355 0
-358 356 355 0
358 -356 355 0
358 356 -355 0
-359 341 -320 0
-359 -341 320 0
359 341 320 0
359 -341 -320 0
-360 13 0
-360 21 0
360 -13 -21 0
-361 359 0
-361 360 0
361 -359 -360 0
-362 -360 -359 0
-362 360 359 0
362 -360 359 0
362 360 -359 0
-363 339 -324 0
-363 -339 324 0
363 339 324 0
363 -339 -324 0
-364 14 0
-364 21 0
364 -14 -21 0
-365 363 0
-365 364 0
365 -363 -364 0
-366 -364 -363 0
-366 364 363 0
366 -364 363 0
366 364 -363 0
-367 337 -328 0
-367 -337 328 0
367 337 328 0
367 -337 -328 0
-368 15 0
-368 21 0
368 -15 -21 0
-369 367 0
-369 368 0
369 -367 -368 0
-370 -368 -367 0
-370 368 367 0
370 -368 367 0
370 368 -367 0
-371 -335 -332 0
-371 335 332 0
371 -335 332 0
371 335 -332 0
-372 16 0
-372 21 0
372 -16 -21 0
-373 371 0
-373 372 0
373 -371 -372 0
-374 370 0
-374 373 0
374 -370 -373 0
-375 -369 0
-375 -374 0
375 369 374 0
-376 366 0
-376 -375 0
376 -366 375 0
-377 -365 0
-377 -376 0
377 365 376 0
-378 362 0
-378 -377 0
378 -362 377 0
-379 -361 0
-379 -378 0
379 361 378 0
-380 358 0
-380 -379 0
380 -358 379 0
-381 -357 0
-381 -380 0
381 357 380 0
-382 354 0
-382 -381 0
382 -354 381 0
-383 -353 0
-383 -382 0
383 353 382 0
-384 383 -350 0
-384 -383 350 0
384 383 350 0
384 -383 -350 0
-385 11 0
-385 22 0
385 -11 -22 0
-386 -385 -384 0
-386 385 384 0
386 -385 384 0
386 385 -384 0
-387 381 -354 0
-387 -381 354 0
387 381 354 0
387 -381 -354 0
-388 12 0
-388 22 0
388 -12 -22 0
-389 387 0
-389 388 0
389 -387 -388 0
-390 -388 -387 0
-390 388 387 0
390 -388 387 0
390 388 -387 0
-391 379 -358 0
-391 -379 358 0
391 379 358 0
391 -379 -358 0
-392 13 0
-392 22 0
392 -13 -22 0
-393 391 0
-393 392 0
393 -391 -392 0
-394 -392 -391 0
-394 392 391 0
394 -392 391 0
394 392 -391 0
-395 377 -362 0
-395 -377 362 0
395 377 362 0
395 -377 -362 0
-396 14 0
-396 22 0
396 -14 -22 0
-397 395 0
-397 396 0
397 -395 -396 0
-398 -396 -395 0
-398 396 395 0
398 -396 395 0
398 396 -395 0
-399 375 -366 0
-399 -375 366 0
399 375 366 0
399 -375 -366 0
-400 15 0
-400 22 0
400 -15 -22 0
-401 399 0
-401 400 0
401 -399 -400 0
-402 -400 -399 0
-402 400 399 0
402 -400 399 0
402 400 -399 0
-403 -373 -370 0
-403 373 370 0
403 -373 370 0
403 373 -370 0
-404 16 0
-404 22 0
404 -16 -22 0
-405 403 0
-405 404 0
405 -403 -404 0
-406 402 0
-406 405 0
406 -402 -405 0
-407 -401 0
-407 -406 0
407 401 406 0
-408 398 0
-408 -407 0
408 -398 407 0
-409 -397 0
-409 -408 0
409 397 408 0
-410 394 0
-410 -409 0
410 -394 409 0
-411 -393 0
-411 -410 0
411 393 410 0
-412 390 0
-412 -411 0
412 -390 411 0
-413 -389 0
-413 -412 0
413 389 412 0
-414 413 -386 0
-414 -413 386 0
414 413 386 0
414 -413 -386 0
-415 12 0
-415 23 0
415 -12 -23 0
-416 -415 -414 0
-416 415 414 0
416 -415 414 0
416 415 -414 0
-417 411 -390 0
-417 -411 390 0
417 411 390 0
417 -411 -390 0
-418 13 0
-418 23 0
418 -13 -23 0
-419 417 0
-419 418 0
419 -417 -418 0
-420 -418 -417 0
-420 418 417 0
420 -418 417 0
420 418 -417 0
-421 409 -394 0
-421 -409 394 0
421 409 394 0
421 -409 -394 0
-422 14 0
-422 23 0
422 -14 -23 0
-423 421 0
-423 422 0
423 -421 -422 0
-424 -422 -421 0
-424 422 421 0
424 -422 421 0
424 422 -421 0
-425 407 -398 0
-425 -407 398 0
425 407 398 0
425 -407 -398 0
-426 15 0
-426 23 0
426 -15 -23 0
-427 425 0
-427 426 0
427 -425 -426 0
-428 -426 -425 0
-428 426 425 0
428 -426 425 0
428 426 -425 0
-429 -405 -402 0
-429 405 402 0
429 -405 402 0
429 405 -402 0
-430 16 0
-430 23 0
430 -16 -23 0
-431 429 0
-431 430 0
431 -429 -430 0
-432 428 0
-432 431 0
432 -428 -431 0
-433 -427 0
-433 -432 0
433 427 432 0
-434 424 0
-434 -433 0
434 -424 433 0
-435 -423 0
-435 -434 0
435 423 434 0
-436 420 0
-436 -435 0
436 -420 435 0
-437 -419 0
-437 -436 0
437 419 436 0
-438 437 -416 0
-438 -437 416 0
438 437 416 0
438 -437 -416 0
-439 13 0
-439 24 0
439 -13 -24 0
-440 -439 -438 0
-440 439 438 0
440 -439 438 0
440 439 -438 0
-441 435 -420 0
-441 -435 420 0
441 435 420 0
441 -435 -420 0
-442 14 0
-442 24 0
442 -14 -24 0
-443 441 0
-443 442 0
443 -441 -442 0
-444 -442 -441 0
-444 442 441 0
444 -442 441 0
444 442 -441 0
-445 433 -424 0
-445 -433 424 0
445 433 424 0
445 -433 -424 0
-446 15 0
-446 24 0
446 -15 -24 0
-447 445 0
-447 446 0
447 -445 -446 0
-448 -446 -445 0
-448 446 445 0
448 -446 445 0
448 446 -445 0
-449 -431 -428 0
-449 431 428 0
449 -431 428 0
449 431 -428 0
-450 16 0
-450 24 0
450 -16 -24 0
-451 449 0
-451 450 0
451 -449 -450 0
-452 448 0
-452 451 0
452 -448 -451 0
-453 -447 0
-453 -452 0
453 447 452 0
-454 444 0
-454 -453 0
454 -444 453 0
-455 -443 0
-455 -454 0
455 443 454 0
-456 455 -440 0
-456 -455 440 0
456 455 440 0
456 -455 -440 0
-457 14 0
-457 25 0
457 -14 -25 0
-458 -457 -456 0
-458 457 456 0
458 -457 456 0
458 457 -456 0
-459 453 -444 0
-459 -453 444 0
459 453 444 0
459 -453 -444 0
-460 15 0
-460 25 0
460 -15 -25 0
-461 459 0
-461 460 0
461 -459 -460 0
-462 -460 -459 0
-462 460 459 0
462 -460 459 0
462 460 -459 0
-463 -451 -448 0
-463 451 448 0
463 -451 448 0
463 451 -448 0
-464 16 0
-464 25 0
464 -16 -25 0
-465 463 0
-465 464 0
465 -463 -464 0
-466 462 0
-466 465 0
466 -462 -465 0
-467 -461 0
-467 -466 0
467 461 466 0
-468 467 -458 0
-468 -467 458 0
468 467 458 0
468 -467 -458 0
-469 15 0
-469 26 0
469 -15 -26 0
-470 -469 -468 0
-470 469 468 0
470 -469 468 0
470 469 -468 0
-471 -465 -462 0
-471 465 462 0
471 -465 462 0
471 465 -462 0
-472 16 0
-472 26 0
472 -16 -26 0
-473 471 0
-473 472 0
473 -471 -472 0
-474 -473 -470 0
-474 473 470 0
474 -473 470 0
474 473 -470 0
-475 16 0
-475 27 0
475 -16 -27 0
-476 -475 -474 0
-476 475 474 0
476 -475 474 0
476 475 -474 0
-477 476 -1 0
-477 -476 1 0
-478 -472 -471 0
-478 472 471 0
478 -472 471 0
478 472 -471 0
-479 478 -28 0
-479 -478 28 0
-480 477 0
-480 479 0
-481 -464 -463 0
-481 464 463 0
481 -464 463 0
481 464 -463 0
-482 481 -29 0
-482 -481 29 0
-483 480 0
-483 482 0
-484 -450 -449 0
-484 450 449 0
484 -450 449 0
484 450 -449 0
-485 484 -30 0
-485 -484 30 0
-486 483 0
-486 485 0
-487 -430 -429 0
-487 430 429 0
487 -430 429 0
487 430 -429 0
-488 487 -31 0
-488 -487 31 0
-489 486 0
-489 488 0
-490 -404 -403 0
-490 404 403 0
490 -404 403 0
490 404 -403 0
-491 490 -32 0
-491 -490 32 0
-492 489 0
-492 491 0
-493 -372 -371 0
-493 372 371 0
493 -372 371 0
493 372 -371 0
-494 493 -33 0
-494 -493 33 0
-495 492 0
-495 494 0
-496 -334 -333 0
-496 334 333 0
496 -334 333 0
496 334 -333 0
-497 496 -34 0
-497 -496 34 0
-498 495 0
-498 497 0
-499 -290 -289 0
-499 290 289 0
499 -290 289 0
499 290 -289 0
-500 499 -35 0
-500 -499 35 0
-501 498 0
-501 500 0
-502 -240 -239 0
-502 240 239 0
502 -240 239 0
502 240 -239 0
-503 502 -36 0
-503 -502 36 0
-504 501 0
-504 503 0
-505 -184 -183 0
-505 184 183 0
505 -184 183 0
505 184 -183 0
-506 505 -37 0
-506 -505 37 0
-507 504 0
-507 506 0
-508 -122 -121 0
-508 122 121 0
508 -122 121 0
508 122 -121 0
-509 508 -38 0
-509 -508 38 0
-510 507 0
-510 509 0
-511 3 0
-511 16 0
511 -3 -16 0
-512 511 -39 0
-512 -511 39 0
-513 510 0
-513 512 0
-514 16 0
-514 27 0
514 -16 -27 0
-515 15 0
-515 26 0
515 -15 -26 0
-516 -515 -514 0
-516 515 514 0
516 -515 514 0
516 515 -514 0
-517 16 0
-517 26 0
517 -16 -26 0
-518 15 0
-518 25 0
518 -15 -25 0
-519 517 0
-519 518 0
519 -517 -518 0
-520 -518 -517 0
-520 518 517 0
520 -518 517 0
520 518 -517 0
-521 16 0
-521 25 0
521 -16 -25 0
-522 15 0
-522 24 0
522 -15 -24 0
-523 521 0
-523 522 0
523 -521 -522 0
-524 -522 -521 0
-524 522 521 0
524 -522 521 0
524 522 -521 0
-525 16 0
-525 24 0
525 -16 -24 0
-526 15 0
-526 23 0
526 -15 -23 0
-527 525 0
-527 526 0
527 -525 -526 0
-528 -526 -525 0
-528 526 525 0
528 -526 525 0
528 526 -525 0
-529 16 0
-529 23 0
529 -16 -23 0
-530 15 0
-530 22 0
530 -15 -22 0
-531 529 0
-531 530 0
531 -529 -530 0
-532 -530 -529 0
-532 530 529 0
532 -530 529 0
532 530 -529 0
-533 16 0
-533 22 0
533 -16 -22 0
-534 15 0
-534 21 0
534 -15 -21 0
-535 533 0
-535 534 0
535 -533 -534 0
-536 -534 -533 0
-536 534 533 0
536 -534 533 0
536 534 -533 0
-537 16 0
-537 21 0
537 -16 -21 0
-538 15 0
-538 20 0
538 -15 -20 0
-539 537 0
-539 538 0
539 -537 -538 0
-540 -538 -537 0
-540 538 537 0
540 -538 537 0
540 538 -537 0
-541 16 0
-541 20 0
541 -16 -20 0
-542 15 0
-542 19 0
542 -15 -19 0
-543 541 0
-543 542 0
543 -541 -542 0
-544 -542 -541 0
-544 542 541 0
544 -542 541 0
544 542 -541 0
-545 16 0
-545 19 0
545 -16 -19 0
-546 15 0
-546 18 0
546 -15 -18 0
-547 545 0
-547 546 0
547 -545 -546 0
-548 -546 -545 0
-548 546 545 0
548 -546 545 0
548 546 -545 0
-549 16 0
-549 18 0
549 -16 -18 0
-550 15 0
-550 17 0
550 -15 -17 0
-551 549 0
-551 550 0
551 -549 -550 0
-552 -550 -549 0
-552 550 549 0
552 -550 549 0
552 550 -549 0
-553 16 0
-553 17 0
553 -16 -17 0
-554 5 0
-554 15 0
554 -5 -15 0
-555 553 0
-555 554 0
555 -553 -554 0
-556 -554 -553 0
-556 554 553 0
556 -554 553 0
556 554 -553 0
-557 5 0
-557 16 0
557 -5 -16 0
-558 3 0
-558 15 0
558 -3 -15 0
-559 557 0
-559 558 0
559 -557 -558 0
-560 556 0
-560 559 0
560 -556 -559 0
-561 -555 0
-561 -560 0
561 555 560 0
-562 552 0
-562 -561 0
562 -552 561 0
-563 -551 0
-563 -562 0
563 551 562 0
-564 548 0
-564 -563 0
564 -548 563 0
-565 -547 0
-565 -564 0
565 547 564 0
-566 544 0
-566 -565 0
566 -544 565 0
-567 -543 0
-567 -566 0
567 543 566 0
-568 540 0
-568 -567 0
568 -540 567 0
-569 -539 0
-569 -568 0
569 539 568 0
-570 536 0
-570 -569 0
570 -536 569 0
-571 -535 0
-571 -570 0
571 535 570 0
-572 532 0
-572 -571 0
572 -532 571 0
-573 -531 0
-573 -572 0
573 531 572 0
-574 528 0
-574 -573 0
574 -528 573 0
-575 -527 0
-575 -574 0
575 527 574 0
-576 524 0
-576 -575 0
576 -524 575 0
-577 -523 0
-577 -576 0
577 523 576 0
-578 520 0
-578 -577 0
578 -520 577 0
-579 -519 0
-579 -578 0
579 519 578 0
-580 579 -516 0
-580 -579 516 0
580 579 516 0
580 -579 -516 0
-581 14 0
-581 25 0
581 -14 -25 0
-582 -581 -580 0
-582 581 580 0
582 -581 580 0
582 581 -580 0
-583 577 -520 0
-583 -577 520 0
583 577 520 0
583 -577 -520 0
-584 14 0
-584 24 0
584 -14 -24 0
-585 583 0
-585 584 0
585 -583 -584 0
-586 -584 -583 0
-586 584 583 0
586 -584 583 0
586 584 -583 0
-587 575 -524 0
-587 -575 524 0
587 575 524 0
587 -575 -524 0
-588 14 0
-588 23 0
588 -14 -23 0
-589 587 0
-589 588 0
589 -587 -588 0
-590 -588 -587 0
-590 588 587 0
590 -588 587 0
590 588 -587 0
-591 573 -528 0
-591 -573 528 0
591 573 528 0
591 -573 -528 0
-592 14 0
-592 22 0
592 -14 -22 0
-593 591 0
-593 592 0
593 -591 -592 0
-594 -592 -591 0
-594 592 591 0
594 -592 591 0
594 592 -591 0
-595 571 -532 0
-595 -571 532 0
595 571 532 0
595 -571 -532 0
-596 14 0
-596 21 0
596 -14 -21 0
-597 595 0
-597 596 0
597 -595 -596 0
-598 -596 -595 0
-598 596 595 0
598 -596 595 0
598 596 -595 0
-599 569 -536 0
-599 -569 536 0
599 569 536 0
599 -569 -536 0
-600 14 0
-600 20 0
600 -14 -20 0
-601 599 0
-601 600 0
601 -599 -600 0
-602 -600 -599 0
-602 600 599 0
602 -600 599 0
602 600 -599 0
-603 567 -540 0
-603 -567 540 0
603 567 540 0
603 -567 -540 0
-604 14 0
-604 19 0
604 -14 -19 0
-605 603 0
-605 604 0
605 -603 -604 0
-606 -604 -603 0
-606 604 603 0
606 -604 603 0
606 604 -603 0
-607 565 -544 0
-607 -565 544 0
607 565 544 0
607 -565 -544 0
-608 14 0
-608 18 0
608 -14 -18 0
-609 607 0
-609 608 0
609 -607 -608 0
-610 -608 -607 0
-610 608 607 0
610 -608 607 0
610 608 -607 0
-611 563 -548 0
-611 -563 548 0
611 563 548 0
611 -563 -548 0
-612 14 0
-612 17 0
612 -14 -17 0
-613 611 0
-613 612 0
613 -611 -612 0
-614 -612 -611 0
-614 612 611 0
614 -612 611 0
614 612 -611 0
-615 561 -552 0
-615 -561 552 0
615 561 552 0
615 -561 -552 0
-616 5 0
-616 14 0
616 -5 -14 0
-617 615 0
-617 616 0
617 -615 -616 0
-618 -616 -615 0
-618 616 615 0
618 -616 615 0
618 616 -615 0
-619 -559 -556 0
-619 559 556 0
619 -559 556 0
619 559 -556 0
-620 3 0
-620 14 0
620 -3 -14 0
-621 619 0
-621 620 0
621 -619 -620 0
-622 618 0
-622 621 0
622 -618 -621 0
-623 -617 0
-623 -622 0
623 617 622 0
-624 614 0
-624 -623 0
624 -614 623 0
-625 -613 0
-625 -624 0
625 613 624 0
-626 610 0
-626 -625 0
626 -610 625 0
-627 -609 0
-627 -626 0
627 609 626 0
-628 606 0
-628 -627 0
628 -606 627 0
-629 -605 0
-629 -628 0
629 605 628 0
-630 602 0
-630 -629 0
630 -602 629 0
-631 -601 0
-631 -630 0
631 601 630 0
-632 598 0
-632 -631 0
632 -598 631 0
-633 -597 0
-633 -632 0
633 597 632 0
-634 594 0
-634 -633 0
634 -594 633 0
-635 -593 0
-635 -634 0
635 593 634 0
-636 590 0
-636 -635 0
636 -590 635 0
-637 -589 0
-637 -636 0
637 589 636 0
-638 586 0
-638 -637 0
638 -586 637 0
-639 -585 0
-639 -638 0
639 585 638 0
-640 639 -582 0
-640 -639 582 0
640 639 582 0
640 -639 -582 0
-641 13 0
-641 24 0
641 -13 -24 0
-642 -641 -640 0
-642 641 640 0
642 -641 640 0
642 641 -640 0
-643 637 -586 0
-643 -637 586 0
643 637 586 0
643 -637 -586 0
-644 13 0
-644 23 0
644 -13 -23 0
-645 643 0
-645 644 0
645 -643 -644 0
-646 -644 -643 0
-646 644 643 0
646 -644 643 0
646 644 -643 0
-647 635 -590 0
-647 -635 590 0
647 635 590 0
647 -635 -590 0
-648 13 0
-648 22 0
648 -13 -22 0
-649 647 0
-649 648 0
649 -647 -648 0
-650 -648 -647 0
-650 648 647 0
650 -648 647 0
650 648 -647 0
-651 633 -594 0
-651 -633 594 0
651 633 594 0
651 -633 -594 0
-652 13 0
-652 21 0
652 -13 -21 0
-653 651 0
-653 652 0
653 -651 -652 0
-654 -652 -651 0
-654 652 651 0
654 -652 651 0
654 652 -651 0
-655 631 -598 0
-655 -631 598 0
655 631 598 0
655 -631 -598 0
-656 13 0
-656 20 0
656 -13 -20 0
-657 655 0
-657 656 0
657 -655 -656 0
-658 -656 -655 0
-658 656 655 0
658 -656 655 0
658 656 -655 0
-659 629 -602 0
-659 -629 602 0
659 629 602 0
659 -629 -602 0
-660 13 0
-660 19 0
660 -13 -19 0
-661 659 0
-661 660 0
661 -659 -660 0
-662 -660 -659 0
-662 660 659 0
662 -660 659 0
662 660 -659 0
-663 627 -606 0
-663 -627 606 0
663 627 606 0
663 -627 -606 0
-664 13 0
-664 18 0
664 -13 -18 0
-665 663 0
-665 664 0
665 -663 -664 0
-666 -664 -663 0
-666 664 663 0
666 -664 663 0
666 664 -663 0
-667 625 -610 0
-667 -625 610 0
667 625 610 0
667 -625 -610 0
-668 13 0
-668 17 0
668 -13 -17 0
-669 667 0
-669 668 0
669 -667 -668 0
-670 -668 -667 0
-670 668 667 0
670 -668 667 0
670 668 -667 0
-671 623 -614 0
-671 -623 614 0
671 623 614 0
671 -623 -614 0
-672 5 0
-672 13 0
672 -5 -13 0
-673 671 0
-673 672 0
673 -671 -672 0
-674 -672 -671 0
-674 672 671 0
674 -672 671 0
674 672 -671 0
-675 -621 -618 0
-675 621 618 0
675 -621 618 0
675 621 -618 0
-676 3 0
-676 13 0
676 -3 -13 0
-677 675 0
-677 676 0
677 -675 -676 0
-678 674 0
-678 677 0
678 -674 -677 0
-679 -673 0
-679 -678 0
679 673 678 0
-680 670 0
-680 -679 0
680 -670 679 0
-681 -669 0
-681 -680 0
681 669 680 0
-682 666 0
-682 -681 0
682 -666 681 0
-683 -665 0
-683 -682 0
683 665 682 0
-684 662 0
-684 -683 0
684 -662 683 0
-685 -661 0
-685 -684 0
685 661 684 0
-686 658 0
-686 -685 0
686 -658 685 0
-687 -657 0
-687 -686 0
687 657 686 0
-688 654 0
-688 -687 0
688 -654 687 0
-689 -653 0
-689 -688 0
689 653 688 0
-690 650 0
-690 -689 0
690 -650 689 0
-691 -649 0
-691 -690 0
691 649 690 0
-692 646 0
-692 -691 0
692 -646 691 0
-693 -645 0
-693 -692 0
693 645 692 0
-694 693 -642 0
-694 -693 642 0
694 693 642 0
694 -693 -642 0
-695 12 0
-695 23 0
695 -12 -23 0
-696 -695 -694 0
-696 695 694 0
696 -695 694 0
696 695 -694 0
-697 691 -646 0
-697 -691 646 0
697 691 646 0
697 -691 -646 0
-698 12 0
-698 22 0
698 -12 -22 0
-699 697 0
-699 698 0
699 -697 -698 0
-700 -698 -697 0
-700 698 697 0
700 -698 697 0
700 698 -697 0
-701 689 -650 0
-701 -689 650 0
701 689 650 0
701 -689 -650 0
-702 12 0
-702 21 0
702 -12 -21 0
-703 701 0
-703 702 0
703 -701 -702 0
-704 -702 -701 0
-704 702 701 0
704 -702 701 0
704 702 -701 0
-705 687 -654 0
-705 -687 654 0
705 687 654 0
705 -687 -654 0
-706 12 0
-706 20 0
706 -12 -20 0
-707 705 0
-707 706 0
707 -705 -706 0
-708 -706 -705 0
-708 706 705 0
708 -706 705 0
708 706 -705 0
-709 685 -658 0
-709 -685 658 0
709 685 658 0
709 -685 -658 0
-710 12 0
-710 19 0
710 -12 -19 0
-711 709 0
-711 710 0
711 -709 -710 0
-712 -710 -709 0
-712 710 709 0
712 -710 709 0
712 710 -709 0
-713 683 -662 0
-713 -683 662 0
713 683 662 0
713 -683 -662 0
-714 12 0
-714 18 0
714 -12 -18 0
-715 713 0
-715 714 0
715 -713 -714 0
-716 -714 -713 0
-716 714 713 0
716 -714 713 0
716 714 -713 0
-717 681 -666 0
-717 -681 666 0
717 681 666 0
717 -681 -666 0
-718 12 0
-718 17 0
718 -12 -17 0
-719 717 0
-719 718 0
719 -717 -718 0
-720 -718 -717 0
-720 718 717 0
720 -718 717 0
720 718 -717 0
-721 679 -670 0
-721 -679 670 0
721 679 670 0
721 -679 -670 0
-722 5 0
-722 12 0
722 -5 -12 0
-723 721 0
-723 722 0
723 -721 -722 0
-724 -722 -721 0
-724 722 721 0
724 -722 721 0
724 722 -721 0
-725 -677 -674 0
-725 677 674 0
725 -677 674 0
725 677 -674 0
-726 3 0
-726 12 0
726 -3 -12 0
-727 725 0
-727 726 0
727 -725 -726 0
-728 724 0
-728 727 0
728 -724 -727 0
-729 -723 0
-729 -728 0
729 723 728 0
-730 720 0
-730 -729 0
730 -720 729 0
-731 -719 0
-731 -730 0
731 719 730 0
-732 716 0
-732 -731 0
732 -716 731 0
-733 -715 0
-733 -732 0
733 715 732 0
-734 712 0
-734 -733 0
734 -712 733 0
-735 -711 0
-735 -734 0
735 711 734 0
-736 708 0
-736 -735 0
736 -708 735 0
-737 -707 0
-737 -736 0
737 707 736 0
-738 704 0
-738 -737 0
738 -704 737 0
-739 -703 0
-739 -738 0
739 703 738 0
-740 700 0
-740 -739 0
740 -700 739 0
-741 -699 0
-741 -740 0
741 699 740 0
-742 741 -696 0
-742 -741 696 0
742 741 696 0
742 -741 -696 0
-743 11 0
-743 22 0
743 -11 -22 0
-744 -743 -742 0
-744 743 742 0
744 -743 742 0
744 743 -742 0
-745 739 -700 0
-745 -739 700 0
745 739 700 0
745 -739 -700 0
-746 11 0
-746 21 0
746 -11 -21 0
-747 745 0
-747 746 0
747 -745 -746 0
-748 -746 -745 0
-748 746 745 0
748 -746 745 0
748 746 -745 0
-749 737 -704 0
-749 -737 704 0
749 737 704 0
749 -737 -704 0
-750 11 0
-750 20 0
750 -11 -20 0
-751 749 0
-751 750 0
751 -749 -750 0
-752 -750 -749 0
-752 750 749 0
752 -750 749 0
752 750 -749 0
-753 735 -708 0
-753 -735 708 0
753 735 708 0
753 -735 -708 0
-754 11 0
-754 19 0
754 -11 -19 0
-755 753 0
-755 754 0
755 -753 -754 0
-756 -754 -753 0
-756 754 753 0
756 -754 753 0
756 754 -753 0
-757 733 -712 0
-757 -733 712 0
757 733 712 0
757 -733 -712 0
-758 11 0
-758 18 0
758 -11 -18 0
-759 757 0
-759 758 0
759 -757 -758 0
-760 -758 -757 0
-760 758 757 0
760 -758 757 0
760 758 -757 0
-761 731 -716 0
-761 -731 716 0
761 731 716 0
761 -731 -716 0
-762 11 0
-762 17 0
762 -11 -17 0
-763 761 0
-763 762 0
763 -761 -762 0
-764 -762 -761 0
-764 762 761 0
764 -762 761 0
764 762 -761 0
-765 729 -720 0
-765 -729 720 0
765 729 720 0
765 -729 -720 0
-766 5 0
-766 11 0
766 -5 -11 0
-767 765 0
-767 766 0
767 -765 -766 0
-768 -766 -765 0
-768 766 765 0
768 -766 765 0
768 766 -765 0
-769 -727 -724 0
-769 727 724 0
769 -727 724 0
769 727 -724 0
-770 3 0
-770 11 0
770 -3 -11 0
-771 769 0
-771 770 0
771 -769 -770 0
-772 768 0
-772 771 0
772 -768 -771 0
-773 -767 0
-773 -772 0
773 767 772 0
-774 764 0
-774 -773 0
774 -764 773 0
-775 -763 0
-775 -774 0
775 763 774 0
-776 760 0
-776 -775 0
776 -760 775 0
-777 -759 0
-777 -776 0
777 759 776 0
-778 756 0
-778 -777 0
778 -756 777 0
-779 -755 0
-779 -778 0
779 755 778 0
-780 752 0
-780 -779 0
780 -752 779 0
-781 -751 0
-781 -780 0
781 751 780 0
-782 748 0
-782 -781 0
782 -748 781 0
-783 -747 0
-783 -782 0
783 747 782 0
-784 783 -744 0
-784 -783 744 0
784 783 744 0
784 -783 -744 0
-785 10 0
-785 21 0
785 -10 -21 0
-786 -785 -784 0
-786 785 784 0
786 -785 784 0
786 785 -784 0
-787 781 -748 0
-787 -781 748 0
787 781 748 0
787 -781 -748 0
-788 10 0
-788 20 0
788 -10 -20 0
-789 787 0
-789 788 0
789 -787 -788 0
-790 -788 -787 0
-790 788 787 0
790 -788 787 0
790 788 -787 0
-791 779 -752 0
-791 -779 752 0
791 779 752 0
791 -779 -752 0
-792 10 0
-792 19 0
792 -10 -19 0
-793 791 0
-793 792 0
793 -791 -792 0
-794 -792 -791 0
-794 792 791 0
794 -792 791 0
794 792 -791 0
-795 777 -756 0
-795 -777 756 0
795 777 756 0
795 -777 -756 0
-796 10 0
-796 18 0
796 -10 -18 0
-797 795 0
-797 796 0
797 -795 -796 0
-798 -796 -795 0
-798 796 795 0
798 -796 795 0
798 796 -795 0
-799 775 -760 0
-799 -775 760 0
799 775 760 0
799 -775 -760 0
-800 10 0
-800 17 0
800 -10 -17 0
-801 799 0
-801 800 0
801 -799 -800 0
-802 -800 -799 0
-802 800 799 0
802 -800 799 0
802 800 -799 0
-803 773 -764 0
-803 -773 764 0
803 773 764 0
803 -773 -764 0
-804 5 0
-804 10 0
804 -5 -10 0
-805 803 0
-805 804 0
805 -803 -804 0
-806 -804 -803 0
-806 804 803 0
806 -804 803 0
806 804 -803 0
-807 -771 -768 0
-807 771 768 0
807 -771 768 0
807 771 -768 0
-808 3 0
-808 10 0
808 -3 -10 0
-809 807 0
-809 808 0
809 -807 -808 0
-810 806 0
-810 809 0
810 -806 -809 0
-811 -805 0
-811 -810 0
811 805 810 0
-812 802 0
-812 -811 0
812 -802 811 0
-813 -801 0
-813 -812 0
813 801 812 0
-814 798 0
-814 -813 0
814 -798 813 0
-815 -797 0
-815 -814 0
815 797 814 0
-816 794 0
-816 -815 0
816 -794 815 0
-817 -793 0
-817 -816 0
817 793 816 0
-818 790 0
-818 -817 0
818 -790 817 0
-819 -789 0
-819 -818 0
819 789 818 0
-820 819 -786 0
-820 -819 786 0
820 819 786 0
820 -819 -786 0
-821 9 0
-821 20 0
821 -9 -20 0
-822 -821 -820 0
-822 821 820 0
822 -821 820 0
822 821 -820 0
-823 817 -790 0
-823 -817 790 0
823 817 790 0
823 -817 -790 0
-824 9 0
-824 19 0
824 -9 -19 0
-825 823 0
-825 824 0
825 -823 -824 0
-826 -824 -823 0
-826 824 823 0
826 -824 823 0
826 824 -823 0
-827 815 -794 0
-827 -815 794 0
827 815 794 0
827 -815 -794 0
-828 9 0
-828 18 0
828 -9 -18 0
-829 827 0
-829 828 0
829 -827 -828 0
-830 -828 -827 0
-830 828 827 0
830 -828 827 0
830 828 -827 0
-831 813 -798 0
-831 -813 798 0
831 813 798 0
831 -813 -798 0
-832 9 0
-832 17 0
832 -9 -17 0
-833 831 0
-833 832 0
833 -831 -832 0
-834 -832 -831 0
-834 832 831 0
834 -832 831 0
834 832 -831 0
-835 811 -802 0
-835 -811 802 0
835 811 802 0
835 -811 -802 0
-836 5 0
-836 9 0
836 -5 -9 0
-837 835 0
-837 836 0
837 -835 -836 0
-838 -836 -835 0
-838 836 835 0
838 -836 835 0
838 836 -835 0
-839 -809 -806 0
-839 809 806 0
839 -809 806 0
839 809 -806 0
-840 3 0
-840 9 0
840 -3 -9 0
-841 839 0
-841 840 0
841 -839 -840 0
-842 838 0
-842 841 0
842 -838 -841 0
-843 -837 0
-843 -842 0
843 837 842 0
-844 834 0
-844 -843 0
844 -834 843 0
-845 -833 0
-845 -844 0
845 833 844 0
-846 830 0
-846 -845 0
846 -830 845 0
-847 -829 0
-847 -846 0
847 829 846 0
-848 826 0
-848 -847 0
848 -826 847 0
-849 -825 0
-849 -848 0
849 825 848 0
-850 849 -822 0
-850 -849 822 0
850 849 822 0
850 -849 -822 0
-851 8 0
-851 19 0
851 -8 -19 0
-852 -851 -850 0
-852 851 850 0
852 -851 850 0
852 851 -850 0
-853 847 -826 0
-853 -847 826 0
853 847 826 0
853 -847 -826 0
-854 8 0
-854 18 0
854 -8 -18 0
-855 853 0
-855 854 0
855 -853 -854 0
-856 -854 -853 0
-856 854 853 0
856 -854 853 0
856 854 -853 0
-857 845 -830 0
-857 -845 830 0
857 845 830 0
857 -845 -830 0
-858 8 0
-858 17 0
858 -8 -17 0
-859 857 0
-859 858 0
859 -857 -858 0
-860 -858 -857 0
-860 858 857 0
860 -858 857 0
860 858 -857 0
-861 843 -834 0
-861 -843 834 0
861 843 834 0
861 -843 -834 0
-862 5 0
-862 8 0
862 -5 -8 0
-863 861 0
-863 862 0
863 -861 -862 0
-864 -862 -861 0
-864 862 861 0
864 -862 861 0
864 862 -861 0
-865 -841 -838 0
-865 841 838 0
865 -841 838 0
865 841 -838 0
-866 3 0
-866 8 0
866 -3 -8 0
-867 865 0
-867 866 0
867 -865 -866 0
-868 864 0
-868 867 0
868 -864 -867 0
-869 -863 0
-869 -868 0
869 863 868 0
-870 860 0
-870 -869 0
870 -860 869 0
-871 -859 0
-871 -870 0
871 859 870 0
-872 856 0
-872 -871 0
872 -856 871 0
-873 -855 0
-873 -872 0
873 855 872 0
-874 873 -852 0
-874 -873 852 0
874 873 852 0
874 -873 -852 0
-875 7 0
-875 18 0
875 -7 -18 0
-876 -875 -874 0
-876 875 874 0
876 -875 874 0
876 875 -874 0
-877 871 -856 0
-877 -871 856 0
877 871 856 0
877 -871 -856 0
-878 7 0
-878 17 0
878 -7 -17 0
-879 877 0
-879 878 0
879 -877 -878 0
-880 -878 -877 0
-880 878 877 0
880 -878 877 0
880 878 -877 0
-881 869 -860 0
-881 -869 860 0
881 869 860 0
881 -869 -860 0
-882 5 0
-882 7 0
882 -5 -7 0
-883 881 0
-883 882 0
883 -881 -882 0
-884 -882 -881 0
-884 882 881 0
884 -882 881 0
884 882 -881 0
-885 -867 -864 0
-885 867 864 0
885 -867 864 0
885 867 -864 0
-886 3 0
-886 7 0
886 -3 -7 0
-887 885 0
-887 886 0
887 -885 -886 0
-888 884 0
-888 887 0
888 -884 -887 0
-889 -883 0
-889 -888 0
889 883 888 0
-890 880 0
-890 -889 0
890 -880 889 0
-891 -879 0
-891 -890 0
891 879 890 0
-892 891 -876 0
-892 -891 876 0
892 891 876 0
892 -891 -876 0
-893 6 0
-893 17 0
893 -6 -17 0
-894 -893 -892 0
-894 893 892 0
894 -893 892 0
894 893 -892 0
-895 889 -880 0
-895 -889 880 0
895 889 880 0
895 -889 -880 0
-896 5 0
-896 6 0
896 -5 -6 0
-897 895 0
-897 896 0
897 -895 -896 0
-898 -896 -895 0
-898 896 895 0
898 -896 895 0
898 896 -895 0
-899 -887 -884 0
-899 887 884 0
899 -887 884 0
899 887 -884 0
-900 3 0
-900 6 0
900 -3 -6 0
-901 899 0
-901 900 0
901 -899 -900 0
-902 898 0
-902 901 0
902 -898 -901 0
-903 -897 0
-903 -902 0
903 897 902 0
-904 903 -894 0
-904 -903 894 0
904 903 894 0
904 -903 -894 0
-905 4 0
-905 5 0
905 -4 -5 0
-906 -905 -904 0
-906 905 904 0
906 -905 904 0
906 905 -904 0
-907 -901 -898 0
-907 901 898 0
907 -901 898 0
907 901 -898 0
-908 3 0
-908 4 0
908 -3 -4 0
-909 907 0
-909 908 0
909 -907 -908 0
-910 -909 -906 0
-910 909 906 0
910 -909 906 0
910 909 -906 0
-911 2 0
-911 3 0
911 -2 -3 0
-912 -911 -910 0
-912 911 910 0
912 -911 910 0
912 911 -910 0
-913 912 -40 0
-913 -912 40 0
-914 -908 -907 0
-914 908 907 0
914 -908 907 0
914 908 -907 0
-915 914 -41 0
-915 -914 41 0
-916 913 0
-916 915 0
-917 -900 -899 0
-917 900 899 0
917 -900 899 0
917 900 -899 0
-918 917 -42 0
-918 -917 42 0
-919 916 0
-919 918 0
-920 -886 -885 0
-920 886 885 0
920 -886 885 0
920 886 -885 0
-921 920 -43 0
-921 -920 43 0
-922 919 0
-922 921 0
-923 -866 -865 0
-923 866 865 0
923 -866 865 0
923 866 -865 0
-924 923 -44 0
-924 -923 44 0
-925 922 0
-925 924 0
-926 -840 -839 0
-926 840 839 0
926 -840 839 0
926 840 -839 0
-927 926 -45 0
-927 -926 45 0
-928 925 0
-928 927 0
-929 -808 -807 0
-929 808 807 0
929 -808 807 0
929 808 -807 0
-930 929 -46 0
-930 -929 46 0
-931 928 0
-931 930 0
-932 -770 -769 0
-932 770 769 0
932 -770 769 0
932 770 -769 0
-933 932 -47 0
-933 -932 47 0
-934 931 0
-934 933 0
-935 -726 -725 0
-935 726 725 0
935 -726 725 0
935 726 -725 0
-936 935 -48 0
-936 -935 48 0
-937 934 0
-937 936 0
-938 -676 -675 0
-938 676 675 0
938 -676 675 0
938 676 -675 0
-939 938 -49 0
-939 -938 49 0
-940 937 0
-940 939 0
-941 -620 -619 0
-941 620 619 0
941 -620 619 0
941 620 -619 0
-942 941 -50 0
-942 -941 50 0
-943 940 0
-943 942 0
-944 -558 -557 0
-944 558 557 0
944 -558 557 0
944 558 -557 0
-945 944 -51 0
-945 -944 51 0
-946 943 0
-946 945 0
-947 3 0
-947 16 0
947 -3 -16 0
-948 947 -52 0
-948 -947 52 0
-949 946 0
-949 948 0
-950 513 0
-950 949 0
-951 -77 0
-951 950 0
951 0
