p cnf 988 3132
-31 28 0
-31 29 0
31 -28 -29 0
-32 1 0
-32 31 0
32 -1 -31 0
-33 18 0
-33 29 0
33 -18 -29 0
-34 27 0
-34 28 0
34 -27 -28 0
-35 33 0
-35 34 0
35 -33 -34 0
-36 -34 -33 0
-36 34 33 0
36 -34 33 0
36 34 -33 0
-37 2 0
-37 36 0
37 -2 -36 0
-38 -37 -32 0
-38 37 32 0
38 -37 32 0
38 37 -32 0
-39 2 0
-39 31 0
39 -2 -31 0
-40 3 0
-40 36 0
40 -3 -36 0
-41 39 0
-41 40 0
41 -39 -40 0
-42 -40 -39 0
-42 40 39 0
42 -40 39 0
42 40 -39 0
-43 3 0
-43 31 0
43 -3 -31 0
-44 4 0
-44 36 0
44 -4 -36 0
-45 43 0
-45 44 0
45 -43 -44 0
-46 -44 -43 0
-46 44 43 0
46 -44 43 0
46 44 -43 0
-47 4 0
-47 31 0
47 -4 -31 0
-48 5 0
-48 36 0
48 -5 -36 0
-49 47 0
-49 48 0
49 -47 -48 0
-50 -48 -47 0
-50 48 47 0
50 -48 47 0
50 48 -47 0
-51 5 0
-51 31 0
51 -5 -31 0
-52 6 0
-52 36 0
52 -6 -36 0
-53 51 0
-53 52 0
53 -51 -52 0
-54 -52 -51 0
-54 52 51 0
54 -52 51 0
54 52 -51 0
-55 6 0
-55 31 0
55 -6 -31 0
-56 7 0
-56 36 0
56 -7 -36 0
-57 55 0
-57 56 0
57 -55 -56 0
-58 -56 -55 0
-58 56 55 0
58 -56 55 0
58 56 -55 0
-59 7 0
-59 31 0
59 -7 -31 0
-60 8 0
-60 36 0
60 -8 -36 0
-61 59 0
-61 60 0
61 -59 -60 0
-62 -60 -59 0
-62 60 59 0
62 -60 59 0
62 60 -59 0
-63 8 0
-63 31 0
63 -8 -31 0
-64 9 0
-64 36 0
64 -9 -36 0
-65 63 0
-65 64 0
65 -63 -64 0
-66 -64 -63 0
-66 64 63 0
66 -64 63 0
66 64 -63 0
-67 9 0
-67 31 0
67 -9 -31 0
-68 30 0
-68 36 0
68 -30 -36 0
-69 67 0
-69 68 0
69 -67 -68 0
-70 66 0
-70 69 0
70 -66 -69 0
-71 -65 0
-71 -70 0
71 65 70 0
-72 62 0
-72 -71 0
72 -62 71 0
-73 -61 0
-73 -72 0
73 61 72 0
-74 58 0
-74 -73 0
74 -58 73 0
-75 -57 0
-75 -74 0
75 57 74 0
-76 54 0
-76 -75 0
76 -54 75 0
-77 -53 0
-77 -76 0
77 53 76 0
-78 50 0
-78 -77 0
78 -50 77 0
-79 -49 0
-79 -78 0
79 49 78 0
-80 46 0
-80 -79 0
80 -46 79 0
-81 -45 0
-81 -80 0
81 45 80 0
-82 42 0
-82 -81 0
82 -42 81 0
-83 -41 0
-83 -82 0
83 41 82 0
-84 83 -38 0
-84 -83 38 0
84 83 38 0
84 -83 -38 0
-85 17 0
-85 29 0
85 -17 -29 0
-86 18 0
-86 27 0
86 -18 -27 0
-87 85 0
-87 86 0
87 -85 -86 0
-88 -86 -85 0
-88 86 85 0
88 -86 85 0
88 86 -85 0
-89 35 0
-89 88 0
89 -35 -88 0
-90 -88 -35 0
-90 88 35 0
90 -88 35 0
90 88 -35 0
-91 26 0
-91 28 0
91 -26 -28 0
-92 90 0
-92 91 0
92 -90 -91 0
-93 -91 -90 0
-93 91 90 0
93 -91 90 0
93 91 -90 0
-94 3 0
-94 93 0
94 -3 -93 0
-95 -94 -84 0
-95 94 84 0
95 -94 84 0
95 94 -84 0
-96 81 -42 0
-96 -81 42 0
96 81 42 0
96 -81 -42 0
-97 4 0
-97 93 0
97 -4 -93 0
-98 96 0
-98 97 0
98 -96 -97 0
-99 -97 -96 0
-99 97 96 0
99 -97 96 0
99 97 -96 0
-100 79 -46 0
-100 -79 46 0
100 79 46 0
100 -79 -46 0
-101 5 0
-101 93 0
101 -5 -93 0
-102 100 0
-102 101 0
102 -100 -101 0
-103 -101 -100 0
-103 101 100 0
103 -101 100 0
103 101 -100 0
-104 77 -50 0
-104 -77 50 0
104 77 50 0
104 -77 -50 0
-105 6 0
-105 93 0
105 -6 -93 0
-106 104 0
-106 105 0
106 -104 -105 0
-107 -105 -104 0
-107 105 104 0
107 -105 104 0
107 105 -104 0
-108 75 -54 0
-108 -75 54 0
108 75 54 0
108 -75 -54 0
-109 7 0
-109 93 0
109 -7 -93 0
-110 108 0
-110 109 0
110 -108 -109 0
-111 -109 -108 0
-111 109 108 0
111 -109 108 0
111 109 -108 0
-112 73 -58 0
-112 -73 58 0
112 73 58 0
112 -73 -58 0
-113 8 0
-113 93 0
113 -8 -93 0
-114 112 0
-114 113 0
114 -112 -113 0
-115 -113 -112 0
-115 113 112 0
115 -113 112 0
115 113 -112 0
-116 71 -62 0
-116 -71 62 0
116 71 62 0
116 -71 -62 0
-117 9 0
-117 93 0
117 -9 -93 0
-118 116 0
-118 117 0
118 -116 -117 0
-119 -117 -116 0
-119 117 116 0
119 -117 116 0
119 117 -116 0
-120 -69 -66 0
-120 69 66 0
120 -69 66 0
120 69 -66 0
-121 30 0
-121 93 0
121 -30 -93 0
-122 120 0
-122 121 0
122 -120 -121 0
-123 119 0
-123 122 0
123 -119 -122 0
-124 -118 0
-124 -123 0
124 118 123 0
-125 115 0
-125 -124 0
125 -115 124 0
-126 -114 0
-126 -125 0
126 114 125 0
-127 111 0
-127 -126 0
127 -111 126 0
-128 -110 0
-128 -127 0
128 110 127 0
-129 107 0
-129 -128 0
129 -107 128 0
-130 -106 0
-130 -129 0
130 106 129 0
-131 103 0
-131 -130 0
131 -103 130 0
-132 -102 0
-132 -131 0
132 102 131 0
-133 99 0
-133 -132 0
133 -99 132 0
-134 -98 0
-134 -133 0
134 98 133 0
-135 134 -95 0
-135 -134 95 0
135 134 95 0
135 -134 -95 0
-136 16 0
-136 29 0
136 -16 -29 0
-137 17 0
-137 27 0
137 -17 -27 0
-138 136 0
-138 137 0
138 -136 -137 0
-139 -137 -136 0
-139 137 136 0
139 -137 136 0
139 137 -136 0
-140 -87 0
-140 -89 0
140 87 89 0
-141 139 0
-141 -140 0
141 -139 140 0
-142 140 -139 0
-142 -140 139 0
142 140 139 0
142 -140 -139 0
-143 18 0
-143 26 0
143 -18 -26 0
-144 142 0
-144 143 0
144 -142 -143 0
-145 -143 -142 0
-145 143 142 0
145 -143 142 0
145 143 -142 0
-146 92 0
-146 145 0
146 -92 -145 0
-147 -145 -92 0
-147 145 92 0
147 -145 92 0
147 145 -92 0
-148 25 0
-148 28 0
148 -25 -28 0
-149 147 0
-149 148 0
149 -147 -148 0
-150 -148 -147 0
-150 148 147 0
150 -148 147 0
150 148 -147 0
-151 4 0
-151 150 0
151 -4 -150 0
-152 -151 -135 0
-152 151 135 0
152 -151 135 0
152 151 -135 0
-153 132 -99 0
-153 -132 99 0
153 132 99 0
153 -132 -99 0
-154 5 0
-154 150 0
154 -5 -150 0
-155 153 0
-155 154 0
155 -153 -154 0
-156 -154 -153 0
-156 154 153 0
156 -154 153 0
156 154 -153 0
-157 130 -103 0
-157 -130 103 0
157 130 103 0
157 -130 -103 0
-158 6 0
-158 150 0
158 -6 -150 0
-159 157 0
-159 158 0
159 -157 -158 0
-160 -158 -157 0
-160 158 157 0
160 -158 157 0
160 158 -157 0
-161 128 -107 0
-161 -128 107 0
161 128 107 0
161 -128 -107 0
-162 7 0
-162 150 0
162 -7 -150 0
-163 161 0
-163 162 0
163 -161 -162 0
-164 -162 -161 0
-164 162 161 0
164 -162 161 0
164 162 -161 0
-165 126 -111 0
-165 -126 111 0
165 126 111 0
165 -126 -111 0
-166 8 0
-166 150 0
166 -8 -150 0
-167 165 0
-167 166 0
167 -165 -166 0
-168 -166 -165 0
-168 166 165 0
168 -166 165 0
168 166 -165 0
-169 124 -115 0
-169 -124 115 0
169 124 115 0
169 -124 -115 0
-170 9 0
-170 150 0
170 -9 -150 0
-171 169 0
-171 170 0
171 -169 -170 0
-172 -170 -169 0
-172 170 169 0
172 -170 169 0
172 170 -169 0
-173 -122 -119 0
-173 122 119 0
173 -122 119 0
173 122 -119 0
-174 30 0
-174 150 0
174 -30 -150 0
-175 173 0
-175 174 0
175 -173 -174 0
-176 172 0
-176 175 0
176 -172 -175 0
-177 -171 0
-177 -176 0
177 171 176 0
-178 168 0
-178 -177 0
178 -168 177 0
-179 -167 0
-179 -178 0
179 167 178 0
-180 164 0
-180 -179 0
180 -164 179 0
-181 -163 0
-181 -180 0
181 163 180 0
-182 160 0
-182 -181 0
182 -160 181 0
-183 -159 0
-183 -182 0
183 159 182 0
-184 156 0
-184 -183 0
184 -156 183 0
-185 -155 0
-185 -184 0
185 155 184 0
-186 185 -152 0
-186 -185 152 0
186 185 152 0
186 -185 -152 0
-187 15 0
-187 29 0
187 -15 -29 0
-188 16 0
-188 27 0
188 -16 -27 0
-189 187 0
-189 188 0
189 -187 -188 0
-190 -188 -187 0
-190 188 187 0
190 -188 187 0
190 188 -187 0
-191 -138 0
-191 -141 0
191 138 141 0
-192 190 0
-192 -191 0
192 -190 191 0
-193 191 -190 0
-193 -191 190 0
193 191 190 0
193 -191 -190 0
-194 17 0
-194 26 0
194 -17 -26 0
-195 193 0
-195 194 0
195 -193 -194 0
-196 -194 -193 0
-196 194 193 0
196 -194 193 0
196 194 -193 0
-197 -144 0
-197 -146 0
197 144 146 0
-198 196 0
-198 -197 0
198 -196 197 0
-199 197 -196 0
-199 -197 196 0
199 197 196 0
199 -197 -196 0
-200 18 0
-200 25 0
200 -18 -25 0
-201 199 0
-201 200 0
201 -199 -200 0
-202 -200 -199 0
-202 200 199 0
202 -200 199 0
202 200 -199 0
-203 149 0
-203 202 0
203 -149 -202 0
-204 -202 -149 0
-204 202 149 0
204 -202 149 0
204 202 -149 0
-205 24 0
-205 28 0
205 -24 -28 0
-206 204 0
-206 205 0
206 -204 -205 0
-207 -205 -204 0
-207 205 204 0
207 -205 204 0
207 205 -204 0
-208 5 0
-208 207 0
208 -5 -207 0
-209 -208 -186 0
-209 208 186 0
209 -208 186 0
209 208 -186 0
-210 183 -156 0
-210 -183 156 0
210 183 156 0
210 -183 -156 0
-211 6 0
-211 207 0
211 -6 -207 0
-212 210 0
-212 211 0
212 -210 -211 0
-213 -211 -210 0
-213 211 210 0
213 -211 210 0
213 211 -210 0
-214 181 -160 0
-214 -181 160 0
214 181 160 0
214 -181 -160 0
-215 7 0
-215 207 0
215 -7 -207 0
-216 214 0
-216 215 0
216 -214 -215 0
-217 -215 -214 0
-217 215 214 0
217 -215 214 0
217 215 -214 0
-218 179 -164 0
-218 -179 164 0
218 179 164 0
218 -179 -164 0
-219 8 0
-219 207 0
219 -8 -207 0
-220 218 0
-220 219 0
220 -218 -219 0
-221 -219 -218 0
-221 219 218 0
221 -219 218 0
221 219 -218 0
-222 177 -168 0
-222 -177 168 0
222 177 168 0
222 -177 -168 0
-223 9 0
-223 207 0
223 -9 -207 0
-224 222 0
-224 223 0
224 -222 -223 0
-225 -223 -222 0
-225 223 222 0
225 -223 222 0
225 223 -222 0
-226 -175 -172 0
-226 175 172 0
226 -175 172 0
226 175 -172 0
-227 30 0
-227 207 0
227 -30 -207 0
-228 226 0
-228 227 0
228 -226 -227 0
-229 225 0
-229 228 0
229 -225 -228 0
-230 -224 0
-230 -229 0
230 224 229 0
-231 221 0
-231 -230 0
231 -221 230 0
-232 -220 0
-232 -231 0
232 220 231 0
-233 217 0
-233 -232 0
233 -217 232 0
-234 -216 0
-234 -233 0
234 216 233 0
-235 213 0
-235 -234 0
235 -213 234 0
-236 -212 0
-236 -235 0
236 212 235 0
-237 236 -209 0
-237 -236 209 0
237 236 209 0
237 -236 -209 0
-238 14 0
-238 29 0
238 -14 -29 0
-239 15 0
-239 27 0
239 -15 -27 0
-240 238 0
-240 239 0
240 -238 -239 0
-241 -239 -238 0
-241 239 238 0
241 -239 238 0
241 239 -238 0
-242 -189 0
-242 -192 0
242 189 192 0
-243 241 0
-243 -242 0
243 -241 242 0
-244 242 -241 0
-244 -242 241 0
244 242 241 0
244 -242 -241 0
-245 16 0
-245 26 0
245 -16 -26 0
-246 244 0
-246 245 0
246 -244 -245 0
-247 -245 -244 0
-247 245 244 0
247 -245 244 0
247 245 -244 0
-248 -195 0
-248 -198 0
248 195 198 0
-249 247 0
-249 -248 0
249 -247 248 0
-250 248 -247 0
-250 -248 247 0
250 248 247 0
250 -248 -247 0
-251 17 0
-251 25 0
251 -17 -25 0
-252 250 0
-252 251 0
252 -250 -251 0
-253 -251 -250 0
-253 251 250 0
253 -251 250 0
253 251 -250 0
-254 -201 0
-254 -203 0
254 201 203 0
-255 253 0
-255 -254 0
255 -253 254 0
-256 254 -253 0
-256 -254 253 0
256 254 253 0
256 -254 -253 0
-257 18 0
-257 24 0
257 -18 -24 0
-258 256 0
-258 257 0
258 -256 -257 0
-259 -257 -256 0
-259 257 256 0
259 -257 256 0
259 257 -256 0
-260 206 0
-260 259 0
260 -206 -259 0
-261 -259 -206 0
-261 259 206 0
261 -259 206 0
261 259 -206 0
-262 23 0
-262 28 0
262 -23 -28 0
-263 261 0
-263 262 0
263 -261 -262 0
-264 -262 -261 0
-264 262 261 0
264 -262 261 0
264 262 -261 0
-265 6 0
-265 264 0
265 -6 -264 0
-266 -265 -237 0
-266 265 237 0
266 -265 237 0
266 265 -237 0
-267 234 -213 0
-267 -234 213 0
267 234 213 0
267 -234 -213 0
-268 7 0
-268 264 0
268 -7 -264 0
-269 267 0
-269 268 0
269 -267 -268 0
-270 -268 -267 0
-270 268 267 0
270 -268 267 0
270 268 -267 0
-271 232 -217 0
-271 -232 217 0
271 232 217 0
271 -232 -217 0
-272 8 0
-272 264 0
272 -8 -264 0
-273 271 0
-273 272 0
273 -271 -272 0
-274 -272 -271 0
-274 272 271 0
274 -272 271 0
274 272 -271 0
-275 230 -221 0
-275 -230 221 0
275 230 221 0
275 -230 -221 0
-276 9 0
-276 264 0
276 -9 -264 0
-277 275 0
-277 276 0
277 -275 -276 0
-278 -276 -275 0
-278 276 275 0
278 -276 275 0
278 276 -275 0
-279 -228 -225 0
-279 228 225 0
279 -228 225 0
279 228 -225 0
-280 30 0
-280 264 0
280 -30 -264 0
-281 279 0
-281 280 0
281 -279 -280 0
-282 278 0
-282 281 0
282 -278 -281 0
-283 -277 0
-283 -282 0
283 277 282 0
-284 274 0
-284 -283 0
284 -274 283 0
-285 -273 0
-285 -284 0
285 273 284 0
-286 270 0
-286 -285 0
286 -270 285 0
-287 -269 0
-287 -286 0
287 269 286 0
-288 287 -266 0
-288 -287 266 0
288 287 266 0
288 -287 -266 0
-289 13 0
-289 29 0
289 -13 -29 0
-290 14 0
-290 27 0
290 -14 -27 0
-291 289 0
-291 290 0
291 -289 -290 0
-292 -290 -289 0
-292 290 289 0
292 -290 289 0
292 290 -289 0
-293 -240 0
-293 -243 0
293 240 243 0
-294 292 0
-294 -293 0
294 -292 293 0
-295 293 -292 0
-295 -293 292 0
295 293 292 0
295 -293 -292 0
-296 15 0
-296 26 0
296 -15 -26 0
-297 295 0
-297 296 0
297 -295 -296 0
-298 -296 -295 0
-298 296 295 0
298 -296 295 0
298 296 -295 0
-299 -246 0
-299 -249 0
299 246 249 0
-300 298 0
-300 -299 0
300 -298 299 0
-301 299 -298 0
-301 -299 298 0
301 299 298 0
301 -299 -298 0
-302 16 0
-302 25 0
302 -16 -25 0
-303 301 0
-303 302 0
303 -301 -302 0
-304 -302 -301 0
-304 302 301 0
304 -302 301 0
304 302 -301 0
-305 -252 0
-305 -255 0
305 252 255 0
-306 304 0
-306 -305 0
306 -304 305 0
-307 305 -304 0
-307 -305 304 0
307 305 304 0
307 -305 -304 0
-308 17 0
-308 24 0
308 -17 -24 0
-309 307 0
-309 308 0
309 -307 -308 0
-310 -308 -307 0
-310 308 307 0
310 -308 307 0
310 308 -307 0
-311 -258 0
-311 -260 0
311 258 260 0
-312 310 0
-312 -311 0
312 -310 311 0
-313 311 -310 0
-313 -311 310 0
313 311 310 0
313 -311 -310 0
-314 18 0
-314 23 0
314 -18 -23 0
-315 313 0
-315 314 0
315 -313 -314 0
-316 -314 -313 0
-316 314 313 0
316 -314 313 0
316 314 -313 0
-317 263 0
-317 316 0
317 -263 -316 0
-318 -316 -263 0
-318 316 263 0
318 -316 263 0
318 316 -263 0
-319 22 0
-319 28 0
319 -22 -28 0
-320 318 0
-320 319 0
320 -318 -319 0
-321 -319 -318 0
-321 319 318 0
321 -319 318 0
321 319 -318 0
-322 7 0
-322 321 0
322 -7 -321 0
-323 -322 -288 0
-323 322 288 0
323 -322 288 0
323 322 -288 0
-324 285 -270 0
-324 -285 270 0
324 285 270 0
324 -285 -270 0
-325 8 0
-325 321 0
325 -8 -321 0
-326 324 0
-326 325 0
326 -324 -325 0
-327 -325 -324 0
-327 325 324 0
327 -325 324 0
327 325 -324 0
-328 283 -274 0
-328 -283 274 0
328 283 274 0
328 -283 -274 0
-329 9 0
-329 321 0
329 -9 -321 0
-330 328 0
-330 329 0
330 -328 -329 0
-331 -329 -328 0
-331 329 328 0
331 -329 328 0
331 329 -328 0
-332 -281 -278 0
-332 281 278 0
332 -281 278 0
332 281 -278 0
-333 30 0
-333 321 0
333 -30 -321 0
-334 332 0
-334 333 0
334 -332 -333 0
-335 331 0
-335 334 0
335 -331 -334 0
-336 -330 0
-336 -335 0
336 330 335 0
-337 327 0
-337 -336 0
337 -327 336 0
-338 -326 0
-338 -337 0
338 326 337 0
-339 338 -323 0
-339 -338 323 0
339 338 323 0
339 -338 -323 0
-340 12 0
-340 29 0
340 -12 -29 0
-341 13 0
-341 27 0
341 -13 -27 0
-342 340 0
-342 341 0
342 -340 -341 0
-343 -341 -340 0
-343 341 340 0
343 -341 340 0
343 341 -340 0
-344 -291 0
-344 -294 0
344 291 294 0
-345 343 0
-345 -344 0
345 -343 344 0
-346 344 -343 0
-346 -344 343 0
346 344 343 0
346 -344 -343 0
-347 14 0
-347 26 0
347 -14 -26 0
-348 346 0
-348 347 0
348 -346 -347 0
-349 -347 -346 0
-349 347 346 0
349 -347 346 0
349 347 -346 0
-350 -297 0
-350 -300 0
350 297 300 0
-351 349 0
-351 -350 0
351 -349 350 0
-352 350 -349 0
-352 -350 349 0
352 350 349 0
352 -350 -349 0
-353 15 0
-353 25 0
353 -15 -25 0
-354 352 0
-354 353 0
354 -352 -353 0
-355 -353 -352 0
-355 353 352 0
355 -353 352 0
355 353 -352 0
-356 -303 0
-356 -306 0
356 303 306 0
-357 355 0
-357 -356 0
357 -355 356 0
-358 356 -355 0
-358 -356 355 0
358 356 355 0
358 -356 -355 0
-359 16 0
-359 24 0
359 -16 -24 0
-360 358 0
-360 359 0
360 -358 -359 0
-361 -359 -358 0
-361 359 358 0
361 -359 358 0
361 359 -358 0
-362 -309 0
-362 -312 0
362 309 312 0
-363 361 0
-363 -362 0
363 -361 362 0
-364 362 -361 0
-364 -362 361 0
364 362 361 0
364 -362 -361 0
-365 17 0
-365 23 0
365 -17 -23 0
-366 364 0
-366 365 0
366 -364 -365 0
-367 -365 -364 0
-367 365 364 0
367 -365 364 0
367 365 -364 0
-368 -315 0
-368 -317 0
368 315 317 0
-369 367 0
-369 -368 0
369 -367 368 0
-370 368 -367 0
-370 -368 367 0
370 368 367 0
370 -368 -367 0
-371 18 0
-371 22 0
371 -18 -22 0
-372 370 0
-372 371 0
372 -370 -371 0
-373 -371 -370 0
-373 371 370 0
373 -371 370 0
373 371 -370 0
-374 320 0
-374 373 0
374 -320 -373 0
-375 -373 -320 0
-375 373 320 0
375 -373 320 0
375 373 -320 0
-376 21 0
-376 28 0
376 -21 -28 0
-377 375 0
-377 376 0
377 -375 -376 0
-378 -376 -375 0
-378 376 375 0
378 -376 375 0
378 376 -375 0
-379 8 0
-379 378 0
379 -8 -378 0
-380 -379 -339 0
-380 379 339 0
380 -379 339 0
380 379 -339 0
-381 336 -327 0
-381 -336 327 0
381 336 327 0
381 -336 -327 0
-382 9 0
-382 378 0
382 -9 -378 0
-383 381 0
-383 382 0
383 -381 -382 0
-384 -382 -381 0
-384 382 381 0
384 -382 381 0
384 382 -381 0
-385 -334 -331 0
-385 334 331 0
385 -334 331 0
385 334 -331 0
-386 30 0
-386 378 0
386 -30 -378 0
-387 385 0
-387 386 0
387 -385 -386 0
-388 384 0
-388 387 0
388 -384 -387 0
-389 -383 0
-389 -388 0
389 383 388 0
-390 389 -380 0
-390 -389 380 0
390 389 380 0
390 -389 -380 0
-391 11 0
-391 29 0
391 -11 -29 0
-392 12 0
-392 27 0
392 -12 -27 0
-393 391 0
-393 392 0
393 -391 -392 0
-394 -392 -391 0
-394 392 391 0
394 -392 391 0
394 392 -391 0
-395 -342 0
-395 -345 0
395 342 345 0
-396 394 0
-396 -395 0
396 -394 395 0
-397 395 -394 0
-397 -395 394 0
397 395 394 0
397 -395 -394 0
-398 13 0
-398 26 0
398 -13 -26 0
-399 397 0
-399 398 0
399 -397 -398 0
-400 -398 -397 0
-400 398 397 0
400 -398 397 0
400 398 -397 0
-401 -348 0
-401 -351 0
401 348 351 0
-402 400 0
-402 -401 0
402 -400 401 0
-403 401 -400 0
-403 -401 400 0
403 401 400 0
403 -401 -400 0
-404 14 0
-404 25 0
404 -14 -25 0
-405 403 0
-405 404 0
405 -403 -404 0
-406 -404 -403 0
-406 404 403 0
406 -404 403 0
406 404 -403 0
-407 -354 0
-407 -357 0
407 354 357 0
-408 406 0
-408 -407 0
408 -406 407 0
-409 407 -406 0
-409 -407 406 0
409 407 406 0
409 -407 -406 0
-410 15 0
-410 24 0
410 -15 -24 0
-411 409 0
-411 410 0
411 -409 -410 0
-412 -410 -409 0
-412 410 409 0
412 -410 409 0
412 410 -409 0
-413 -360 0
-413 -363 0
413 360 363 0
-414 412 0
-414 -413 0
414 -412 413 0
-415 413 -412 0
-415 -413 412 0
415 413 412 0
415 -413 -412 0
-416 16 0
-416 23 0
416 -16 -23 0
-417 415 0
-417 416 0
417 -415 -416 0
-418 -416 -415 0
-418 416 415 0
418 -416 415 0
418 416 -415 0
-419 -366 0
-419 -369 0
419 366 369 0
-420 418 0
-420 -419 0
420 -418 419 0
-421 419 -418 0
-421 -419 418 0
421 419 418 0
421 -419 -418 0
-422 17 0
-422 22 0
422 -17 -22 0
-423 421 0
-423 422 0
423 -421 -422 0
-424 -422 -421 0
-424 422 421 0
424 -422 421 0
424 422 -421 0
-425 -372 0
-425 -374 0
425 372 374 0
-426 424 0
-426 -425 0
426 -424 425 0
-427 425 -424 0
-427 -425 424 0
427 425 424 0
427 -425 -424 0
-428 18 0
-428 21 0
428 -18 -21 0
-429 427 0
-429 428 0
429 -427 -428 0
-430 -428 -427 0
-430 428 427 0
430 -428 427 0
430 428 -427 0
-431 377 0
-431 430 0
431 -377 -430 0
-432 -430 -377 0
-432 430 377 0
432 -430 377 0
432 430 -377 0
-433 20 0
-433 28 0
433 -20 -28 0
-434 432 0
-434 433 0
434 -432 -433 0
-435 -433 -432 0
-435 433 432 0
435 -433 432 0
435 433 -432 0
-436 9 0
-436 435 0
436 -9 -435 0
-437 -436 -390 0
-437 436 390 0
437 -436 390 0
437 436 -390 0
-438 -387 -384 0
-438 387 384 0
438 -387 384 0
438 387 -384 0
-439 30 0
-439 435 0
439 -30 -435 0
-440 438 0
-440 439 0
440 -438 -439 0
-441 -440 -437 0
-441 440 437 0
441 -440 437 0
441 440 -437 0
-442 10 0
-442 29 0
442 -10 -29 0
-443 11 0
-443 27 0
443 -11 -27 0
-444 -443 -442 0
-444 443 442 0
444 -443 442 0
444 443 -442 0
-445 -393 0
-445 -396 0
445 393 396 0
-446 445 -444 0
-446 -445 444 0
446 445 444 0
446 -445 -444 0
-447 12 0
-447 26 0
447 -12 -26 0
-448 -447 -446 0
-448 447 446 0
448 -447 446 0
448 447 -446 0
-449 -399 0
-449 -402 0
449 399 402 0
-450 449 -448 0
-450 -449 448 0
450 449 448 0
450 -449 -448 0
-451 13 0
-451 25 0
451 -13 -25 0
-452 -451 -450 0
-452 451 450 0
452 -451 450 0
452 451 -450 0
-453 -405 0
-453 -408 0
453 405 408 0
-454 453 -452 0
-454 -453 452 0
454 453 452 0
454 -453 -452 0
-455 14 0
-455 24 0
455 -14 -24 0
-456 -455 -454 0
-456 455 454 0
456 -455 454 0
456 455 -454 0
-457 -411 0
-457 -414 0
457 411 414 0
-458 457 -456 0
-458 -457 456 0
458 457 456 0
458 -457 -456 0
-459 15 0
-459 23 0
459 -15 -23 0
-460 -459 -458 0
-460 459 458 0
460 -459 458 0
460 459 -458 0
-461 -417 0
-461 -420 0
461 417 420 0
-462 461 -460 0
-462 -461 460 0
462 461 460 0
462 -461 -460 0
-463 16 0
-463 22 0
463 -16 -22 0
-464 -463 -462 0
-464 463 462 0
464 -463 462 0
464 463 -462 0
-465 -423 0
-465 -426 0
465 423 426 0
-466 465 -464 0
-466 -465 464 0
466 465 464 0
466 -465 -464 0
-467 17 0
-467 21 0
467 -17 -21 0
-468 -467 -466 0
-468 467 466 0
468 -467 466 0
468 467 -466 0
-469 -429 0
-469 -431 0
469 429 431 0
-470 469 -468 0
-470 -469 468 0
470 469 468 0
470 -469 -468 0
-471 18 0
-471 20 0
471 -18 -20 0
-472 -471 -470 0
-472 471 470 0
472 -471 470 0
472 471 -470 0
-473 -472 -434 0
-473 472 434 0
473 -472 434 0
473 472 -434 0
-474 19 0
-474 28 0
474 -19 -28 0
-475 -474 -473 0
-475 474 473 0
475 -474 473 0
475 474 -473 0
-476 30 0
-476 475 0
476 -30 -475 0
-477 -476 -441 0
-477 476 441 0
477 -476 441 0
477 476 -441 0
-478 1 0
-478 28 0
478 -1 -28 0
-479 2 0
-479 18 0
479 -2 -18 0
-480 -479 -478 0
-480 479 478 0
480 -479 478 0
480 479 -478 0
-481 2 0
-481 28 0
481 -2 -28 0
-482 3 0
-482 18 0
482 -3 -18 0
-483 481 0
-483 482 0
483 -481 -482 0
-484 -482 -481 0
-484 482 481 0
484 -482 481 0
484 482 -481 0
-485 3 0
-485 28 0
485 -3 -28 0
-486 4 0
-486 18 0
486 -4 -18 0
-487 485 0
-487 486 0
487 -485 -486 0
-488 -486 -485 0
-488 486 485 0
488 -486 485 0
488 486 -485 0
-489 4 0
-489 28 0
489 -4 -28 0
-490 5 0
-490 18 0
490 -5 -18 0
-491 489 0
-491 490 0
491 -489 -490 0
-492 -490 -489 0
-492 490 489 0
492 -490 489 0
492 490 -489 0
-493 5 0
-493 28 0
493 -5 -28 0
-494 6 0
-494 18 0
494 -6 -18 0
-495 493 0
-495 494 0
495 -493 -494 0
-496 -494 -493 0
-496 494 493 0
496 -494 493 0
496 494 -493 0
-497 6 0
-497 28 0
497 -6 -28 0
-498 7 0
-498 18 0
498 -7 -18 0
-499 497 0
-499 498 0
499 -497 -498 0
-500 -498 -497 0
-500 498 497 0
500 -498 497 0
500 498 -497 0
-501 7 0
-501 28 0
501 -7 -28 0
-502 8 0
-502 18 0
502 -8 -18 0
-503 501 0
-503 502 0
503 -501 -502 0
-504 -502 -501 0
-504 502 501 0
504 -502 501 0
504 502 -501 0
-505 8 0
-505 28 0
505 -8 -28 0
-506 9 0
-506 18 0
506 -9 -18 0
-507 505 0
-507 506 0
507 -505 -506 0
-508 -506 -505 0
-508 506 505 0
508 -506 505 0
508 506 -505 0
-509 9 0
-509 28 0
509 -9 -28 0
-510 18 0
-510 30 0
510 -18 -30 0
-511 509 0
-511 510 0
511 -509 -510 0
-512 508 0
-512 511 0
512 -508 -511 0
-513 -507 0
-513 -512 0
513 507 512 0
-514 504 0
-514 -513 0
514 -504 513 0
-515 -503 0
-515 -514 0
515 503 514 0
-516 500 0
-516 -515 0
516 -500 515 0
-517 -499 0
-517 -516 0
517 499 516 0
-518 496 0
-518 -517 0
518 -496 517 0
-519 -495 0
-519 -518 0
519 495 518 0
-520 492 0
-520 -519 0
520 -492 519 0
-521 -491 0
-521 -520 0
521 491 520 0
-522 488 0
-522 -521 0
522 -488 521 0
-523 -487 0
-523 -522 0
523 487 522 0
-524 484 0
-524 -523 0
524 -484 523 0
-525 -483 0
-525 -524 0
525 483 524 0
-526 525 -480 0
-526 -525 480 0
526 525 480 0
526 -525 -480 0
-527 3 0
-527 17 0
527 -3 -17 0
-528 -527 -526 0
-528 527 526 0
528 -527 526 0
528 527 -526 0
-529 523 -484 0
-529 -523 484 0
529 523 484 0
529 -523 -484 0
-530 4 0
-530 17 0
530 -4 -17 0
-531 529 0
-531 530 0
531 -529 -530 0
-532 -530 -529 0
-532 530 529 0
532 -530 529 0
532 530 -529 0
-533 521 -488 0
-533 -521 488 0
533 521 488 0
533 -521 -488 0
-534 5 0
-534 17 0
534 -5 -17 0
-535 533 0
-535 534 0
535 -533 -534 0
-536 -534 -533 0
-536 534 533 0
536 -534 533 0
536 534 -533 0
-537 519 -492 0
-537 -519 492 0
537 519 492 0
537 -519 -492 0
-538 6 0
-538 17 0
538 -6 -17 0
-539 537 0
-539 538 0
539 -537 -538 0
-540 -538 -537 0
-540 538 537 0
540 -538 537 0
540 538 -537 0
-541 517 -496 0
-541 -517 496 0
541 517 496 0
541 -517 -496 0
-542 7 0
-542 17 0
542 -7 -17 0
-543 541 0
-543 542 0
543 -541 -542 0
-544 -542 -541 0
-544 542 541 0
544 -542 541 0
544 542 -541 0
-545 515 -500 0
-545 -515 500 0
545 515 500 0
545 -515 -500 0
-546 8 0
-546 17 0
546 -8 -17 0
-547 545 0
-547 546 0
547 -545 -546 0
-548 -546 -545 0
-548 546 545 0
548 -546 545 0
548 546 -545 0
-549 513 -504 0
-549 -513 504 0
549 513 504 0
549 -513 -504 0
-550 9 0
-550 17 0
550 -9 -17 0
-551 549 0
-551 550 0
551 -549 -550 0
-552 -550 -549 0
-552 550 549 0
552 -550 549 0
552 550 -549 0
-553 -511 -508 0
-553 511 508 0
553 -511 508 0
553 511 -508 0
-554 17 0
-554 30 0
554 -17 -30 0
-555 553 0
-555 554 0
555 -553 -554 0
-556 552 0
-556 555 0
556 -552 -555 0
-557 -551 0
-557 -556 0
557 551 556 0
-558 548 0
-558 -557 0
558 -548 557 0
-559 -547 0
-559 -558 0
559 547 558 0
-560 544 0
-560 -559 0
560 -544 559 0
-561 -543 0
-561 -560 0
561 543 560 0
-562 540 0
-562 -561 0
562 -540 561 0
-563 -539 0
-563 -562 0
563 539 562 0
-564 536 0
-564 -563 0
564 -536 563 0
-565 -535 0
-565 -564 0
565 535 564 0
-566 532 0
-566 -565 0
566 -532 565 0
-567 -531 0
-567 -566 0
567 531 566 0
-568 567 -528 0
-568 -567 528 0
568 567 528 0
568 -567 -528 0
-569 4 0
-569 16 0
569 -4 -16 0
-570 -569 -568 0
-570 569 568 0
570 -569 568 0
570 569 -568 0
-571 565 -532 0
-571 -565 532 0
571 565 532 0
571 -565 -532 0
-572 5 0
-572 16 0
572 -5 -16 0
-573 571 0
-573 572 0
573 -571 -572 0
-574 -572 -571 0
-574 572 571 0
574 -572 571 0
574 572 -571 0
-575 563 -536 0
-575 -563 536 0
575 563 536 0
575 -563 -536 0
-576 6 0
-576 16 0
576 -6 -16 0
-577 575 0
-577 576 0
577 -575 -576 0
-578 -576 -575 0
-578 576 575 0
578 -576 575 0
578 576 -575 0
-579 561 -540 0
-579 -561 540 0
579 561 540 0
579 -561 -540 0
-580 7 0
-580 16 0
580 -7 -16 0
-581 579 0
-581 580 0
581 -579 -580 0
-582 -580 -579 0
-582 580 579 0
582 -580 579 0
582 580 -579 0
-583 559 -544 0
-583 -559 544 0
583 559 544 0
583 -559 -544 0
-584 8 0
-584 16 0
584 -8 -16 0
-585 583 0
-585 584 0
585 -583 -584 0
-586 -584 -583 0
-586 584 583 0
586 -584 583 0
586 584 -583 0
-587 557 -548 0
-587 -557 548 0
587 557 548 0
587 -557 -548 0
-588 9 0
-588 16 0
588 -9 -16 0
-589 587 0
-589 588 0
589 -587 -588 0
-590 -588 -587 0
-590 588 587 0
590 -588 587 0
590 588 -587 0
-591 -555 -552 0
-591 555 552 0
591 -555 552 0
591 555 -552 0
-592 16 0
-592 30 0
592 -16 -30 0
-593 591 0
-593 592 0
593 -591 -592 0
-594 590 0
-594 593 0
594 -590 -593 0
-595 -589 0
-595 -594 0
595 589 594 0
-596 586 0
-596 -595 0
596 -586 595 0
-597 -585 0
-597 -596 0
597 585 596 0
-598 582 0
-598 -597 0
598 -582 597 0
-599 -581 0
-599 -598 0
599 581 598 0
-600 578 0
-600 -599 0
600 -578 599 0
-601 -577 0
-601 -600 0
601 577 600 0
-602 574 0
-602 -601 0
602 -574 601 0
-603 -573 0
-603 -602 0
603 573 602 0
-604 603 -570 0
-604 -603 570 0
604 603 570 0
604 -603 -570 0
-605 5 0
-605 15 0
605 -5 -15 0
-606 -605 -604 0
-606 605 604 0
606 -605 604 0
606 605 -604 0
-607 601 -574 0
-607 -601 574 0
607 601 574 0
607 -601 -574 0
-608 6 0
-608 15 0
608 -6 -15 0
-609 607 0
-609 608 0
609 -607 -608 0
-610 -608 -607 0
-610 608 607 0
610 -608 607 0
610 608 -607 0
-611 599 -578 0
-611 -599 578 0
611 599 578 0
611 -599 -578 0
-612 7 0
-612 15 0
612 -7 -15 0
-613 611 0
-613 612 0
613 -611 -612 0
-614 -612 -611 0
-614 612 611 0
614 -612 611 0
614 612 -611 0
-615 597 -582 0
-615 -597 582 0
615 597 582 0
615 -597 -582 0
-616 8 0
-616 15 0
616 -8 -15 0
-617 615 0
-617 616 0
617 -615 -616 0
-618 -616 -615 0
-618 616 615 0
618 -616 615 0
618 616 -615 0
-619 595 -586 0
-619 -595 586 0
619 595 586 0
619 -595 -586 0
-620 9 0
-620 15 0
620 -9 -15 0
-621 619 0
-621 620 0
621 -619 -620 0
-622 -620 -619 0
-622 620 619 0
622 -620 619 0
622 620 -619 0
-623 -593 -590 0
-623 593 590 0
623 -593 590 0
623 593 -590 0
-624 15 0
-624 30 0
624 -15 -30 0
-625 623 0
-625 624 0
625 -623 -624 0
-626 622 0
-626 625 0
626 -622 -625 0
-627 -621 0
-627 -626 0
627 621 626 0
-628 618 0
-628 -627 0
628 -618 627 0
-629 -617 0
-629 -628 0
629 617 628 0
-630 614 0
-630 -629 0
630 -614 629 0
-631 -613 0
-631 -630 0
631 613 630 0
-632 610 0
-632 -631 0
632 -610 631 0
-633 -609 0
-633 -632 0
633 609 632 0
-634 633 -606 0
-634 -633 606 0
634 633 606 0
634 -633 -606 0
-635 6 0
-635 14 0
635 -6 -14 0
-636 -635 -634 0
-636 635 634 0
636 -635 634 0
636 635 -634 0
-637 631 -610 0
-637 -631 610 0
637 631 610 0
637 -631 -610 0
-638 7 0
-638 14 0
638 -7 -14 0
-639 637 0
-639 638 0
639 -637 -638 0
-640 -638 -637 0
-640 638 637 0
640 -638 637 0
640 638 -637 0
-641 629 -614 0
-641 -629 614 0
641 629 614 0
641 -629 -614 0
-642 8 0
-642 14 0
642 -8 -14 0
-643 641 0
-643 642 0
643 -641 -642 0
-644 -642 -641 0
-644 642 641 0
644 -642 641 0
644 642 -641 0
-645 627 -618 0
-645 -627 618 0
645 627 618 0
645 -627 -618 0
-646 9 0
-646 14 0
646 -9 -14 0
-647 645 0
-647 646 0
647 -645 -646 0
-648 -646 -645 0
-648 646 645 0
648 -646 645 0
648 646 -645 0
-649 -625 -622 0
-649 625 622 0
649 -625 622 0
649 625 -622 0
-650 14 0
-650 30 0
650 -14 -30 0
-651 649 0
-651 650 0
651 -649 -650 0
-652 648 0
-652 651 0
652 -648 -651 0
-653 -647 0
-653 -652 0
653 647 652 0
-654 644 0
-654 -653 0
654 -644 653 0
-655 -643 0
-655 -654 0
655 643 654 0
-656 640 0
-656 -655 0
656 -640 655 0
-657 -639 0
-657 -656 0
657 639 656 0
-658 657 -636 0
-658 -657 636 0
658 657 636 0
658 -657 -636 0
-659 7 0
-659 13 0
659 -7 -13 0
-660 -659 -658 0
-660 659 658 0
660 -659 658 0
660 659 -658 0
-661 655 -640 0
-661 -655 640 0
661 655 640 0
661 -655 -640 0
-662 8 0
-662 13 0
662 -8 -13 0
-663 661 0
-663 662 0
663 -661 -662 0
-664 -662 -661 0
-664 662 661 0
664 -662 661 0
664 662 -661 0
-665 653 -644 0
-665 -653 644 0
665 653 644 0
665 -653 -644 0
-666 9 0
-666 13 0
666 -9 -13 0
-667 665 0
-667 666 0
667 -665 -666 0
-668 -666 -665 0
-668 666 665 0
668 -666 665 0
668 666 -665 0
-669 -651 -648 0
-669 651 648 0
669 -651 648 0
669 651 -648 0
-670 13 0
-670 30 0
670 -13 -30 0
-671 669 0
-671 670 0
671 -669 -670 0
-672 668 0
-672 671 0
672 -668 -671 0
-673 -667 0
-673 -672 0
673 667 672 0
-674 664 0
-674 -673 0
674 -664 673 0
-675 -663 0
-675 -674 0
675 663 674 0
-676 675 -660 0
-676 -675 660 0
676 675 660 0
676 -675 -660 0
-677 8 0
-677 12 0
677 -8 -12 0
-678 -677 -676 0
-678 677 676 0
678 -677 676 0
678 677 -676 0
-679 673 -664 0
-679 -673 664 0
679 673 664 0
679 -673 -664 0
-680 9 0
-680 12 0
680 -9 -12 0
-681 679 0
-681 680 0
681 -679 -680 0
-682 -680 -679 0
-682 680 679 0
682 -680 679 0
682 680 -679 0
-683 -671 -668 0
-683 671 668 0
683 -671 668 0
683 671 -668 0
-684 12 0
-684 30 0
684 -12 -30 0
-685 683 0
-685 684 0
685 -683 -684 0
-686 682 0
-686 685 0
686 -682 -685 0
-687 -681 0
-687 -686 0
687 681 686 0
-688 687 -678 0
-688 -687 678 0
688 687 678 0
688 -687 -678 0
-689 9 0
-689 11 0
689 -9 -11 0
-690 -689 -688 0
-690 689 688 0
690 -689 688 0
690 689 -688 0
-691 -685 -682 0
-691 685 682 0
691 -685 682 0
691 685 -682 0
-692 11 0
-692 30 0
692 -11 -30 0
-693 691 0
-693 692 0
693 -691 -692 0
-694 -693 -690 0
-694 693 690 0
694 -693 690 0
694 693 -690 0
-695 10 0
-695 30 0
695 -10 -30 0
-696 -695 -694 0
-696 695 694 0
696 -695 694 0
696 695 -694 0
-697 29 0
-697 696 0
697 -29 -696 0
-698 -692 -691 0
-698 692 691 0
698 -692 691 0
698 692 -691 0
-699 27 0
-699 698 0
699 -27 -698 0
-700 -699 -697 0
-700 699 697 0
700 -699 697 0
700 699 -697 0
-701 29 0
-701 698 0
701 -29 -698 0
-702 -684 -683 0
-702 684 683 0
702 -684 683 0
702 684 -683 0
-703 27 0
-703 702 0
703 -27 -702 0
-704 701 0
-704 703 0
704 -701 -703 0
-705 -703 -701 0
-705 703 701 0
705 -703 701 0
705 703 -701 0
-706 29 0
-706 702 0
706 -29 -702 0
-707 -670 -669 0
-707 670 669 0
707 -670 669 0
707 670 -669 0
-708 27 0
-708 707 0
708 -27 -707 0
-709 706 0
-709 708 0
709 -706 -708 0
-710 -708 -706 0
-710 708 706 0
710 -708 706 0
710 708 -706 0
-711 29 0
-711 707 0
711 -29 -707 0
-712 -650 -649 0
-712 650 649 0
712 -650 649 0
712 650 -649 0
-713 27 0
-713 712 0
713 -27 -712 0
-714 711 0
-714 713 0
714 -711 -713 0
-715 -713 -711 0
-715 713 711 0
715 -713 711 0
715 713 -711 0
-716 29 0
-716 712 0
716 -29 -712 0
-717 -624 -623 0
-717 624 623 0
717 -624 623 0
717 624 -623 0
-718 27 0
-718 717 0
718 -27 -717 0
-719 716 0
-719 718 0
719 -716 -718 0
-720 -718 -716 0
-720 718 716 0
720 -718 716 0
720 718 -716 0
-721 29 0
-721 717 0
721 -29 -717 0
-722 -592 -591 0
-722 592 591 0
722 -592 591 0
722 592 -591 0
-723 27 0
-723 722 0
723 -27 -722 0
-724 721 0
-724 723 0
724 -721 -723 0
-725 -723 -721 0
-725 723 721 0
725 -723 721 0
725 723 -721 0
-726 29 0
-726 722 0
726 -29 -722 0
-727 -554 -553 0
-727 554 553 0
727 -554 553 0
727 554 -553 0
-728 27 0
-728 727 0
728 -27 -727 0
-729 726 0
-729 728 0
729 -726 -728 0
-730 -728 -726 0
-730 728 726 0
730 -728 726 0
730 728 -726 0
-731 29 0
-731 727 0
731 -29 -727 0
-732 -510 -509 0
-732 510 509 0
732 -510 509 0
732 510 -509 0
-733 27 0
-733 732 0
733 -27 -732 0
-734 731 0
-734 733 0
734 -731 -733 0
-735 -733 -731 0
-735 733 731 0
735 -733 731 0
735 733 -731 0
-736 29 0
-736 732 0
736 -29 -732 0
-737 28 0
-737 30 0
737 -28 -30 0
-738 27 0
-738 737 0
738 -27 -737 0
-739 736 0
-739 738 0
739 -736 -738 0
-740 735 0
-740 739 0
740 -735 -739 0
-741 -734 0
-741 -740 0
741 734 740 0
-742 730 0
-742 -741 0
742 -730 741 0
-743 -729 0
-743 -742 0
743 729 742 0
-744 725 0
-744 -743 0
744 -725 743 0
-745 -724 0
-745 -744 0
745 724 744 0
-746 720 0
-746 -745 0
746 -720 745 0
-747 -719 0
-747 -746 0
747 719 746 0
-748 715 0
-748 -747 0
748 -715 747 0
-749 -714 0
-749 -748 0
749 714 748 0
-750 710 0
-750 -749 0
750 -710 749 0
-751 -709 0
-751 -750 0
751 709 750 0
-752 705 0
-752 -751 0
752 -705 751 0
-753 -704 0
-753 -752 0
753 704 752 0
-754 753 -700 0
-754 -753 700 0
754 753 700 0
754 -753 -700 0
-755 26 0
-755 702 0
755 -26 -702 0
-756 -755 -754 0
-756 755 754 0
756 -755 754 0
756 755 -754 0
-757 751 -705 0
-757 -751 705 0
757 751 705 0
757 -751 -705 0
-758 26 0
-758 707 0
758 -26 -707 0
-759 757 0
-759 758 0
759 -757 -758 0
-760 -758 -757 0
-760 758 757 0
760 -758 757 0
760 758 -757 0
-761 749 -710 0
-761 -749 710 0
761 749 710 0
761 -749 -710 0
-762 26 0
-762 712 0
762 -26 -712 0
-763 761 0
-763 762 0
763 -761 -762 0
-764 -762 -761 0
-764 762 761 0
764 -762 761 0
764 762 -761 0
-765 747 -715 0
-765 -747 715 0
765 747 715 0
765 -747 -715 0
-766 26 0
-766 717 0
766 -26 -717 0
-767 765 0
-767 766 0
767 -765 -766 0
-768 -766 -765 0
-768 766 765 0
768 -766 765 0
768 766 -765 0
-769 745 -720 0
-769 -745 720 0
769 745 720 0
769 -745 -720 0
-770 26 0
-770 722 0
770 -26 -722 0
-771 769 0
-771 770 0
771 -769 -770 0
-772 -770 -769 0
-772 770 769 0
772 -770 769 0
772 770 -769 0
-773 743 -725 0
-773 -743 725 0
773 743 725 0
773 -743 -725 0
-774 26 0
-774 727 0
774 -26 -727 0
-775 773 0
-775 774 0
775 -773 -774 0
-776 -774 -773 0
-776 774 773 0
776 -774 773 0
776 774 -773 0
-777 741 -730 0
-777 -741 730 0
777 741 730 0
777 -741 -730 0
-778 26 0
-778 732 0
778 -26 -732 0
-779 777 0
-779 778 0
779 -777 -778 0
-780 -778 -777 0
-780 778 777 0
780 -778 777 0
780 778 -777 0
-781 -739 -735 0
-781 739 735 0
781 -739 735 0
781 739 -735 0
-782 26 0
-782 737 0
782 -26 -737 0
-783 781 0
-783 782 0
783 -781 -782 0
-784 780 0
-784 783 0
784 -780 -783 0
-785 -779 0
-785 -784 0
785 779 784 0
-786 776 0
-786 -785 0
786 -776 785 0
-787 -775 0
-787 -786 0
787 775 786 0
-788 772 0
-788 -787 0
788 -772 787 0
-789 -771 0
-789 -788 0
789 771 788 0
-790 768 0
-790 -789 0
790 -768 789 0
-791 -767 0
-791 -790 0
791 767 790 0
-792 764 0
-792 -791 0
792 -764 791 0
-793 -763 0
-793 -792 0
793 763 792 0
-794 760 0
-794 -793 0
794 -760 793 0
-795 -759 0
-795 -794 0
795 759 794 0
-796 795 -756 0
-796 -795 756 0
796 795 756 0
796 -795 -756 0
-797 25 0
-797 707 0
797 -25 -707 0
-798 -797 -796 0
-798 797 796 0
798 -797 796 0
798 797 -796 0
-799 793 -760 0
-799 -793 760 0
799 793 760 0
799 -793 -760 0
-800 25 0
-800 712 0
800 -25 -712 0
-801 799 0
-801 800 0
801 -799 -800 0
-802 -800 -799 0
-802 800 799 0
802 -800 799 0
802 800 -799 0
-803 791 -764 0
-803 -791 764 0
803 791 764 0
803 -791 -764 0
-804 25 0
-804 717 0
804 -25 -717 0
-805 803 0
-805 804 0
805 -803 -804 0
-806 -804 -803 0
-806 804 803 0
806 -804 803 0
806 804 -803 0
-807 789 -768 0
-807 -789 768 0
807 789 768 0
807 -789 -768 0
-808 25 0
-808 722 0
808 -25 -722 0
-809 807 0
-809 808 0
809 -807 -808 0
-810 -808 -807 0
-810 808 807 0
810 -808 807 0
810 808 -807 0
-811 787 -772 0
-811 -787 772 0
811 787 772 0
811 -787 -772 0
-812 25 0
-812 727 0
812 -25 -727 0
-813 811 0
-813 812 0
813 -811 -812 0
-814 -812 -811 0
-814 812 811 0
814 -812 811 0
814 812 -811 0
-815 785 -776 0
-815 -785 776 0
815 785 776 0
815 -785 -776 0
-816 25 0
-816 732 0
816 -25 -732 0
-817 815 0
-817 816 0
817 -815 -816 0
-818 -816 -815 0
-818 816 815 0
818 -816 815 0
818 816 -815 0
-819 -783 -780 0
-819 783 780 0
819 -783 780 0
819 783 -780 0
-820 25 0
-820 737 0
820 -25 -737 0
-821 819 0
-821 820 0
821 -819 -820 0
-822 818 0
-822 821 0
822 -818 -821 0
-823 -817 0
-823 -822 0
823 817 822 0
-824 814 0
-824 -823 0
824 -814 823 0
-825 -813 0
-825 -824 0
825 813 824 0
-826 810 0
-826 -825 0
826 -810 825 0
-827 -809 0
-827 -826 0
827 809 826 0
-828 806 0
-828 -827 0
828 -806 827 0
-829 -805 0
-829 -828 0
829 805 828 0
-830 802 0
-830 -829 0
830 -802 829 0
-831 -801 0
-831 -830 0
831 801 830 0
-832 831 -798 0
-832 -831 798 0
832 831 798 0
832 -831 -798 0
-833 24 0
-833 712 0
833 -24 -712 0
-834 -833 -832 0
-834 833 832 0
834 -833 832 0
834 833 -832 0
-835 829 -802 0
-835 -829 802 0
835 829 802 0
835 -829 -802 0
-836 24 0
-836 717 0
836 -24 -717 0
-837 835 0
-837 836 0
837 -835 -836 0
-838 -836 -835 0
-838 836 835 0
838 -836 835 0
838 836 -835 0
-839 827 -806 0
-839 -827 806 0
839 827 806 0
839 -827 -806 0
-840 24 0
-840 722 0
840 -24 -722 0
-841 839 0
-841 840 0
841 -839 -840 0
-842 -840 -839 0
-842 840 839 0
842 -840 839 0
842 840 -839 0
-843 825 -810 0
-843 -825 810 0
843 825 810 0
843 -825 -810 0
-844 24 0
-844 727 0
844 -24 -727 0
-845 843 0
-845 844 0
845 -843 -844 0
-846 -844 -843 0
-846 844 843 0
846 -844 843 0
846 844 -843 0
-847 823 -814 0
-847 -823 814 0
847 823 814 0
847 -823 -814 0
-848 24 0
-848 732 0
848 -24 -732 0
-849 847 0
-849 848 0
849 -847 -848 0
-850 -848 -847 0
-850 848 847 0
850 -848 847 0
850 848 -847 0
-851 -821 -818 0
-851 821 818 0
851 -821 818 0
851 821 -818 0
-852 24 0
-852 737 0
852 -24 -737 0
-853 851 0
-853 852 0
853 -851 -852 0
-854 850 0
-854 853 0
854 -850 -853 0
-855 -849 0
-855 -854 0
855 849 854 0
-856 846 0
-856 -855 0
856 -846 855 0
-857 -845 0
-857 -856 0
857 845 856 0
-858 842 0
-858 -857 0
858 -842 857 0
-859 -841 0
-859 -858 0
859 841 858 0
-860 838 0
-860 -859 0
860 -838 859 0
-861 -837 0
-861 -860 0
861 837 860 0
-862 861 -834 0
-862 -861 834 0
862 861 834 0
862 -861 -834 0
-863 23 0
-863 717 0
863 -23 -717 0
-864 -863 -862 0
-864 863 862 0
864 -863 862 0
864 863 -862 0
-865 859 -838 0
-865 -859 838 0
865 859 838 0
865 -859 -838 0
-866 23 0
-866 722 0
866 -23 -722 0
-867 865 0
-867 866 0
867 -865 -866 0
-868 -866 -865 0
-868 866 865 0
868 -866 865 0
868 866 -865 0
-869 857 -842 0
-869 -857 842 0
869 857 842 0
869 -857 -842 0
-870 23 0
-870 727 0
870 -23 -727 0
-871 869 0
-871 870 0
871 -869 -870 0
-872 -870 -869 0
-872 870 869 0
872 -870 869 0
872 870 -869 0
-873 855 -846 0
-873 -855 846 0
873 855 846 0
873 -855 -846 0
-874 23 0
-874 732 0
874 -23 -732 0
-875 873 0
-875 874 0
875 -873 -874 0
-876 -874 -873 0
-876 874 873 0
876 -874 873 0
876 874 -873 0
-877 -853 -850 0
-877 853 850 0
877 -853 850 0
877 853 -850 0
-878 23 0
-878 737 0
878 -23 -737 0
-879 877 0
-879 878 0
879 -877 -878 0
-880 876 0
-880 879 0
880 -876 -879 0
-881 -875 0
-881 -880 0
881 875 880 0
-882 872 0
-882 -881 0
882 -872 881 0
-883 -871 0
-883 -882 0
883 871 882 0
-884 868 0
-884 -883 0
884 -868 883 0
-885 -867 0
-885 -884 0
885 867 884 0
-886 885 -864 0
-886 -885 864 0
886 885 864 0
886 -885 -864 0
-887 22 0
-887 722 0
887 -22 -722 0
-888 -887 -886 0
-888 887 886 0
888 -887 886 0
888 887 -886 0
-889 883 -868 0
-889 -883 868 0
889 883 868 0
889 -883 -868 0
-890 22 0
-890 727 0
890 -22 -727 0
-891 889 0
-891 890 0
891 -889 -890 0
-892 -890 -889 0
-892 890 889 0
892 -890 889 0
892 890 -889 0
-893 881 -872 0
-893 -881 872 0
893 881 872 0
893 -881 -872 0
-894 22 0
-894 732 0
894 -22 -732 0
-895 893 0
-895 894 0
895 -893 -894 0
-896 -894 -893 0
-896 894 893 0
896 -894 893 0
896 894 -893 0
-897 -879 -876 0
-897 879 876 0
897 -879 876 0
897 879 -876 0
-898 22 0
-898 737 0
898 -22 -737 0
-899 897 0
-899 898 0
899 -897 -898 0
-900 896 0
-900 899 0
900 -896 -899 0
-901 -895 0
-901 -900 0
901 895 900 0
-902 892 0
-902 -901 0
902 -892 901 0
-903 -891 0
-903 -902 0
903 891 902 0
-904 903 -888 0
-904 -903 888 0
904 903 888 0
904 -903 -888 0
-905 21 0
-905 727 0
905 -21 -727 0
-906 -905 -904 0
-906 905 904 0
906 -905 904 0
906 905 -904 0
-907 901 -892 0
-907 -901 892 0
907 901 892 0
907 -901 -892 0
-908 21 0
-908 732 0
908 -21 -732 0
-909 907 0
-909 908 0
909 -907 -908 0
-910 -908 -907 0
-910 908 907 0
910 -908 907 0
910 908 -907 0
-911 -899 -896 0
-911 899 896 0
911 -899 896 0
911 899 -896 0
-912 21 0
-912 737 0
912 -21 -737 0
-913 911 0
-913 912 0
913 -911 -912 0
-914 910 0
-914 913 0
914 -910 -913 0
-915 -909 0
-915 -914 0
915 909 914 0
-916 915 -906 0
-916 -915 906 0
916 915 906 0
916 -915 -906 0
-917 20 0
-917 732 0
917 -20 -732 0
-918 -917 -916 0
-918 917 916 0
918 -917 916 0
918 917 -916 0
-919 -913 -910 0
-919 913 910 0
919 -913 910 0
919 913 -910 0
-920 20 0
-920 737 0
920 -20 -737 0
-921 919 0
-921 920 0
921 -919 -920 0
-922 -921 -918 0
-922 921 918 0
922 -921 918 0
922 921 -918 0
-923 19 0
-923 737 0
923 -19 -737 0
-924 -923 -922 0
-924 923 922 0
924 -923 922 0
924 923 -922 0
925 924 477 0
925 -924 -477 0
-926 -439 -438 0
-926 439 438 0
926 -439 438 0
926 439 -438 0
-927 -920 -919 0
-927 920 919 0
927 -920 919 0
927 920 -919 0
928 927 926 0
928 -927 -926 0
929 -925 -928 0
-930 -386 -385 0
-930 386 385 0
930 -386 385 0
930 386 -385 0
-931 -912 -911 0
-931 912 911 0
931 -912 911 0
931 912 -911 0
932 931 930 0
932 -931 -930 0
933 -929 -932 0
-934 -333 -332 0
-934 333 332 0
934 -333 332 0
934 333 -332 0
-935 -898 -897 0
-935 898 897 0
935 -898 897 0
935 898 -897 0
936 935 934 0
936 -935 -934 0
937 -933 -936 0
-938 -280 -279 0
-938 280 279 0
938 -280 279 0
938 280 -279 0
-939 -878 -877 0
-939 878 877 0
939 -878 877 0
939 878 -877 0
940 939 938 0
940 -939 -938 0
941 -937 -940 0
-942 -227 -226 0
-942 227 226 0
942 -227 226 0
942 227 -226 0
-943 -852 -851 0
-943 852 851 0
943 -852 851 0
943 852 -851 0
944 943 942 0
944 -943 -942 0
945 -941 -944 0
-946 -174 -173 0
-946 174 173 0
946 -174 173 0
946 174 -173 0
-947 -820 -819 0
-947 820 819 0
947 -820 819 0
947 820 -819 0
948 947 946 0
948 -947 -946 0
949 -945 -948 0
-950 -121 -120 0
-950 121 120 0
950 -121 120 0
950 121 -120 0
-951 -782 -781 0
-951 782 781 0
951 -782 781 0
951 782 -781 0
952 951 950 0
952 -951 -950 0
953 -949 -952 0
-954 -68 -67 0
-954 68 67 0
954 -68 67 0
954 68 -67 0
-955 -738 -736 0
-955 738 736 0
955 -738 736 0
955 738 -736 0
956 955 954 0
956 -955 -954 0
957 -953 -956 0
-958 30 0
-958 31 0
958 -30 -31 0
-959 29 0
-959 737 0
959 -29 -737 0
960 959 958 0
960 -959 -958 0
961 -957 -960 0
-962 -26 0
-962 -27 0
-963 -25 0
-963 962 0
-964 -24 0
-964 963 0
965 -23 964 0
-966 -22 0
-966 -965 0
967 -21 966 0
968 -20 -967 0
969 -19 -968 0
-970 -8 0
-970 -9 0
-971 -7 0
-971 970 0
-972 -6 0
-972 971 0
973 -5 972 0
-974 -4 0
-974 -973 0
975 -3 974 0
976 -2 -975 0
977 -1 -976 0
-978 -17 0
-978 -18 0
-979 -16 0
-979 978 0
-980 -15 0
-980 979 0
981 -14 980 0
-982 -13 0
-982 -981 0
983 -12 982 0
984 -11 -983 0
985 -10 -984 0
-986 -977 0
-986 -985 0
-987 -969 0
-987 986 0
-988 -961 0
-988 987 0
988 0
