p cnf 195 524
25 19 1 0
25 -19 -1 0
26 20 14 0
26 -20 -14 0
27 -25 -26 0
28 21 15 0
28 -21 -15 0
29 -27 -28 0
30 22 16 0
30 -22 -16 0
31 -29 -30 0
32 23 17 0
32 -23 -17 0
33 -31 -32 0
34 24 18 0
34 -24 -18 0
35 -33 -34 0
-36 2 0
-36 3 0
36 -2 -3 0
-37 4 0
-37 5 0
37 -4 -5 0
-38 -37 -36 0
-38 37 36 0
38 -37 36 0
38 37 -36 0
-39 3 0
-39 4 0
39 -3 -4 0
-40 5 0
-40 6 0
40 -5 -6 0
-41 39 0
-41 40 0
41 -39 -40 0
-42 -40 -39 0
-42 40 39 0
42 -40 39 0
42 40 -39 0
-43 3 0
-43 6 0
43 -3 -6 0
-44 5 0
-44 7 0
44 -5 -7 0
-45 43 0
-45 44 0
45 -43 -44 0
-46 -44 -43 0
-46 44 43 0
46 -44 43 0
46 44 -43 0
-47 3 0
-47 7 0
47 -3 -7 0
-48 5 0
-48 8 0
48 -5 -8 0
-49 47 0
-49 48 0
49 -47 -48 0
-50 -48 -47 0
-50 48 47 0
50 -48 47 0
50 48 -47 0
-51 3 0
-51 8 0
51 -3 -8 0
-52 5 0
-52 9 0
52 -5 -9 0
-53 51 0
-53 52 0
53 -51 -52 0
-54 50 0
-54 53 0
54 -50 -53 0
-55 -49 0
-55 -54 0
55 49 54 0
-56 46 0
-56 -55 0
56 -46 55 0
-57 -45 0
-57 -56 0
57 45 56 0
-58 42 0
-58 -57 0
58 -42 57 0
-59 -41 0
-59 -58 0
59 41 58 0
-60 59 -38 0
-60 -59 38 0
60 59 38 0
60 -59 -38 0
-61 6 0
-61 10 0
61 -6 -10 0
-62 -61 -60 0
-62 61 60 0
62 -61 60 0
62 61 -60 0
-63 57 -42 0
-63 -57 42 0
63 57 42 0
63 -57 -42 0
-64 7 0
-64 10 0
64 -7 -10 0
-65 63 0
-65 64 0
65 -63 -64 0
-66 -64 -63 0
-66 64 63 0
66 -64 63 0
66 64 -63 0
-67 55 -46 0
-67 -55 46 0
67 55 46 0
67 -55 -46 0
-68 8 0
-68 10 0
68 -8 -10 0
-69 67 0
-69 68 0
69 -67 -68 0
-70 -68 -67 0
-70 68 67 0
70 -68 67 0
70 68 -67 0
-71 -53 -50 0
-71 53 50 0
71 -53 50 0
71 53 -50 0
-72 9 0
-72 10 0
72 -9 -10 0
-73 71 0
-73 72 0
73 -71 -72 0
-74 70 0
-74 73 0
74 -70 -73 0
-75 -69 0
-75 -74 0
75 69 74 0
-76 66 0
-76 -75 0
76 -66 75 0
-77 -65 0
-77 -76 0
77 65 76 0
-78 77 -62 0
-78 -77 62 0
78 77 62 0
78 -77 -62 0
-79 7 0
-79 11 0
79 -7 -11 0
-80 -79 -78 0
-80 79 78 0
80 -79 78 0
80 79 -78 0
-81 75 -66 0
-81 -75 66 0
81 75 66 0
81 -75 -66 0
-82 8 0
-82 11 0
82 -8 -11 0
-83 81 0
-83 82 0
83 -81 -82 0
-84 -82 -81 0
-84 82 81 0
84 -82 81 0
84 82 -81 0
-85 -73 -70 0
-85 73 70 0
85 -73 70 0
85 73 -70 0
-86 9 0
-86 11 0
86 -9 -11 0
-87 85 0
-87 86 0
87 -85 -86 0
-88 84 0
-88 87 0
88 -84 -87 0
-89 -83 0
-89 -88 0
89 83 88 0
-90 89 -80 0
-90 -89 80 0
90 89 80 0
90 -89 -80 0
-91 8 0
-91 12 0
91 -8 -12 0
-92 -91 -90 0
-92 91 90 0
92 -91 90 0
92 91 -90 0
-93 -87 -84 0
-93 87 84 0
93 -87 84 0
93 87 -84 0
-94 9 0
-94 12 0
94 -9 -12 0
-95 93 0
-95 94 0
95 -93 -94 0
-96 -95 -92 0
-96 95 92 0
96 -95 92 0
96 95 -92 0
-97 9 0
-97 13 0
97 -9 -13 0
-98 -97 -96 0
-98 97 96 0
98 -97 96 0
98 97 -96 0
-99 98 -1 0
-99 -98 1 0
-100 -94 -93 0
-100 94 93 0
100 -94 93 0
100 94 -93 0
-101 100 -14 0
-101 -100 14 0
-102 99 0
-102 101 0
-103 -86 -85 0
-103 86 85 0
103 -86 85 0
103 86 -85 0
-104 103 -15 0
-104 -103 15 0
-105 102 0
-105 104 0
-106 -72 -71 0
-106 72 71 0
106 -72 71 0
106 72 -71 0
-107 106 -16 0
-107 -106 16 0
-108 105 0
-108 107 0
-109 -52 -51 0
-109 52 51 0
109 -52 51 0
109 52 -51 0
-110 109 -17 0
-110 -109 17 0
-111 108 0
-111 110 0
-112 3 0
-112 9 0
112 -3 -9 0
-113 112 -18 0
-113 -112 18 0
-114 111 0
-114 113 0
-115 9 0
-115 13 0
115 -9 -13 0
-116 8 0
-116 12 0
116 -8 -12 0
-117 -116 -115 0
-117 116 115 0
117 -116 115 0
117 116 -115 0
-118 9 0
-118 12 0
118 -9 -12 0
-119 8 0
-119 11 0
119 -8 -11 0
-120 118 0
-120 119 0
120 -118 -119 0
-121 -119 -118 0
-121 119 118 0
121 -119 118 0
121 119 -118 0
-122 9 0
-122 11 0
122 -9 -11 0
-123 8 0
-123 10 0
123 -8 -10 0
-124 122 0
-124 123 0
124 -122 -123 0
-125 -123 -122 0
-125 123 122 0
125 -123 122 0
125 123 -122 0
-126 9 0
-126 10 0
126 -9 -10 0
-127 5 0
-127 8 0
127 -5 -8 0
-128 126 0
-128 127 0
128 -126 -127 0
-129 -127 -126 0
-129 127 126 0
129 -127 126 0
129 127 -126 0
-130 5 0
-130 9 0
130 -5 -9 0
-131 3 0
-131 8 0
131 -3 -8 0
-132 130 0
-132 131 0
132 -130 -131 0
-133 129 0
-133 132 0
133 -129 -132 0
-134 -128 0
-134 -133 0
134 128 133 0
-135 125 0
-135 -134 0
135 -125 134 0
-136 -124 0
-136 -135 0
136 124 135 0
-137 121 0
-137 -136 0
137 -121 136 0
-138 -120 0
-138 -137 0
138 120 137 0
-139 138 -117 0
-139 -138 117 0
139 138 117 0
139 -138 -117 0
-140 7 0
-140 11 0
140 -7 -11 0
-141 -140 -139 0
-141 140 139 0
141 -140 139 0
141 140 -139 0
-142 136 -121 0
-142 -136 121 0
142 136 121 0
142 -136 -121 0
-143 7 0
-143 10 0
143 -7 -10 0
-144 142 0
-144 143 0
144 -142 -143 0
-145 -143 -142 0
-145 143 142 0
145 -143 142 0
145 143 -142 0
-146 134 -125 0
-146 -134 125 0
146 134 125 0
146 -134 -125 0
-147 5 0
-147 7 0
147 -5 -7 0
-148 146 0
-148 147 0
148 -146 -147 0
-149 -147 -146 0
-149 147 146 0
149 -147 146 0
149 147 -146 0
-150 -132 -129 0
-150 132 129 0
150 -132 129 0
150 132 -129 0
-151 3 0
-151 7 0
151 -3 -7 0
-152 150 0
-152 151 0
152 -150 -151 0
-153 149 0
-153 152 0
153 -149 -152 0
-154 -148 0
-154 -153 0
154 148 153 0
-155 145 0
-155 -154 0
155 -145 154 0
-156 -144 0
-156 -155 0
156 144 155 0
-157 156 -141 0
-157 -156 141 0
157 156 141 0
157 -156 -141 0
-158 6 0
-158 10 0
158 -6 -10 0
-159 -158 -157 0
-159 158 157 0
159 -158 157 0
159 158 -157 0
-160 154 -145 0
-160 -154 145 0
160 154 145 0
160 -154 -145 0
-161 5 0
-161 6 0
161 -5 -6 0
-162 160 0
-162 161 0
162 -160 -161 0
-163 -161 -160 0
-163 161 160 0
163 -161 160 0
163 161 -160 0
-164 -152 -149 0
-164 152 149 0
164 -152 149 0
164 152 -149 0
-165 3 0
-165 6 0
165 -3 -6 0
-166 164 0
-166 165 0
166 -164 -165 0
-167 163 0
-167 166 0
167 -163 -166 0
-168 -162 0
-168 -167 0
168 162 167 0
-169 168 -159 0
-169 -168 159 0
169 168 159 0
169 -168 -159 0
-170 4 0
-170 5 0
170 -4 -5 0
-171 -170 -169 0
-171 170 169 0
171 -170 169 0
171 170 -169 0
-172 -166 -163 0
-172 166 163 0
172 -166 163 0
172 166 -163 0
-173 3 0
-173 4 0
173 -3 -4 0
-174 172 0
-174 173 0
174 -172 -173 0
-175 -174 -171 0
-175 174 171 0
175 -174 171 0
175 174 -171 0
-176 2 0
-176 3 0
176 -2 -3 0
-177 -176 -175 0
-177 176 175 0
177 -176 175 0
177 176 -175 0
-178 177 -19 0
-178 -177 19 0
-179 -173 -172 0
-179 173 172 0
179 -173 172 0
179 173 -172 0
-180 179 -20 0
-180 -179 20 0
-181 178 0
-181 180 0
-182 -165 -164 0
-182 165 164 0
182 -165 164 0
182 165 -164 0
-183 182 -21 0
-183 -182 21 0
-184 181 0
-184 183 0
-185 -151 -150 0
-185 151 150 0
185 -151 150 0
185 151 -150 0
-186 185 -22 0
-186 -185 22 0
-187 184 0
-187 186 0
-188 -131 -130 0
-188 131 130 0
188 -131 130 0
188 131 -130 0
-189 188 -23 0
-189 -188 23 0
-190 187 0
-190 189 0
-191 3 0
-191 9 0
191 -3 -9 0
-192 191 -24 0
-192 -191 24 0
-193 190 0
-193 192 0
-194 114 0
-194 193 0
-195 -35 0
-195 194 0
195 0
