p cnf 807 2438
49 37 1 0
49 -37 -1 0
50 38 26 0
50 -38 -26 0
51 -49 -50 0
52 39 27 0
52 -39 -27 0
53 -51 -52 0
54 40 28 0
54 -40 -28 0
55 -53 -54 0
56 41 29 0
56 -41 -29 0
57 -55 -56 0
58 42 30 0
58 -42 -30 0
59 -57 -58 0
60 43 31 0
60 -43 -31 0
61 -59 -60 0
62 44 32 0
62 -44 -32 0
63 -61 -62 0
64 45 33 0
64 -45 -33 0
65 -63 -64 0
66 46 34 0
66 -46 -34 0
67 -65 -66 0
68 47 35 0
68 -47 -35 0
69 -67 -68 0
70 48 36 0
70 -48 -36 0
71 -69 -70 0
-72 2 0
-72 3 0
72 -2 -3 0
-73 4 0
-73 5 0
73 -4 -5 0
-74 -73 -72 0
-74 73 72 0
74 -73 72 0
74 73 -72 0
-75 3 0
-75 4 0
75 -3 -4 0
-76 5 0
-76 6 0
76 -5 -6 0
-77 75 0
-77 76 0
77 -75 -76 0
-78 -76 -75 0
-78 76 75 0
78 -76 75 0
78 76 -75 0
-79 3 0
-79 6 0
79 -3 -6 0
-80 5 0
-80 7 0
80 -5 -7 0
-81 79 0
-81 80 0
81 -79 -80 0
-82 -80 -79 0
-82 80 79 0
82 -80 79 0
82 80 -79 0
-83 3 0
-83 7 0
83 -3 -7 0
-84 5 0
-84 8 0
84 -5 -8 0
-85 83 0
-85 84 0
85 -83 -84 0
-86 -84 -83 0
-86 84 83 0
86 -84 83 0
86 84 -83 0
-87 3 0
-87 8 0
87 -3 -8 0
-88 5 0
-88 9 0
88 -5 -9 0
-89 87 0
-89 88 0
89 -87 -88 0
-90 -88 -87 0
-90 88 87 0
90 -88 87 0
90 88 -87 0
-91 3 0
-91 9 0
91 -3 -9 0
-92 5 0
-92 10 0
92 -5 -10 0
-93 91 0
-93 92 0
93 -91 -92 0
-94 -92 -91 0
-94 92 91 0
94 -92 91 0
94 92 -91 0
-95 3 0
-95 10 0
95 -3 -10 0
-96 5 0
-96 11 0
96 -5 -11 0
-97 95 0
-97 96 0
97 -95 -96 0
-98 -96 -95 0
-98 96 95 0
98 -96 95 0
98 96 -95 0
-99 3 0
-99 11 0
99 -3 -11 0
-100 5 0
-100 12 0
100 -5 -12 0
-101 99 0
-101 100 0
101 -99 -100 0
-102 -100 -99 0
-102 100 99 0
102 -100 99 0
102 100 -99 0
-103 3 0
-103 12 0
103 -3 -12 0
-104 5 0
-104 13 0
104 -5 -13 0
-105 103 0
-105 104 0
105 -103 -104 0
-106 -104 -103 0
-106 104 103 0
106 -104 103 0
106 104 -103 0
-107 3 0
-107 13 0
107 -3 -13 0
-108 5 0
-108 14 0
108 -5 -14 0
-109 107 0
-109 108 0
109 -107 -108 0
-110 -108 -107 0
-110 108 107 0
110 -108 107 0
110 108 -107 0
-111 3 0
-111 14 0
111 -3 -14 0
-112 5 0
-112 15 0
112 -5 -15 0
-113 111 0
-113 112 0
113 -111 -112 0
-114 110 0
-114 113 0
114 -110 -113 0
-115 -109 0
-115 -114 0
115 109 114 0
-116 106 0
-116 -115 0
116 -106 115 0
-117 -105 0
-117 -116 0
117 105 116 0
-118 102 0
-118 -117 0
118 -102 117 0
-119 -101 0
-119 -118 0
119 101 118 0
-120 98 0
-120 -119 0
120 -98 119 0
-121 -97 0
-121 -120 0
121 97 120 0
-122 94 0
-122 -121 0
122 -94 121 0
-123 -93 0
-123 -122 0
123 93 122 0
-124 90 0
-124 -123 0
124 -90 123 0
-125 -89 0
-125 -124 0
125 89 124 0
-126 86 0
-126 -125 0
126 -86 125 0
-127 -85 0
-127 -126 0
127 85 126 0
-128 82 0
-128 -127 0
128 -82 127 0
-129 -81 0
-129 -128 0
129 81 128 0
-130 78 0
-130 -129 0
130 -78 129 0
-131 -77 0
-131 -130 0
131 77 130 0
-132 131 -74 0
-132 -131 74 0
132 131 74 0
132 -131 -74 0
-133 6 0
-133 16 0
133 -6 -16 0
-134 -133 -132 0
-134 133 132 0
134 -133 132 0
134 133 -132 0
-135 129 -78 0
-135 -129 78 0
135 129 78 0
135 -129 -78 0
-136 7 0
-136 16 0
136 -7 -16 0
-137 135 0
-137 136 0
137 -135 -136 0
-138 -136 -135 0
-138 136 135 0
138 -136 135 0
138 136 -135 0
-139 127 -82 0
-139 -127 82 0
139 127 82 0
139 -127 -82 0
-140 8 0
-140 16 0
140 -8 -16 0
-141 139 0
-141 140 0
141 -139 -140 0
-142 -140 -139 0
-142 140 139 0
142 -140 139 0
142 140 -139 0
-143 125 -86 0
-143 -125 86 0
143 125 86 0
143 -125 -86 0
-144 9 0
-144 16 0
144 -9 -16 0
-145 143 0
-145 144 0
145 -143 -144 0
-146 -144 -143 0
-146 144 143 0
146 -144 143 0
146 144 -143 0
-147 123 -90 0
-147 -123 90 0
147 123 90 0
147 -123 -90 0
-148 10 0
-148 16 0
148 -10 -16 0
-149 147 0
-149 148 0
149 -147 -148 0
-150 -148 -147 0
-150 148 147 0
150 -148 147 0
150 148 -147 0
-151 121 -94 0
-151 -121 94 0
151 121 94 0
151 -121 -94 0
-152 11 0
-152 16 0
152 -11 -16 0
-153 151 0
-153 152 0
153 -151 -152 0
-154 -152 -151 0
-154 152 151 0
154 -152 151 0
154 152 -151 0
-155 119 -98 0
-155 -119 98 0
155 119 98 0
155 -119 -98 0
-156 12 0
-156 16 0
156 -12 -16 0
-157 155 0
-157 156 0
157 -155 -156 0
-158 -156 -155 0
-158 156 155 0
158 -156 155 0
158 156 -155 0
-159 117 -102 0
-159 -117 102 0
159 117 102 0
159 -117 -102 0
-160 13 0
-160 16 0
160 -13 -16 0
-161 159 0
-161 160 0
161 -159 -160 0
-162 -160 -159 0
-162 160 159 0
162 -160 159 0
162 160 -159 0
-163 115 -106 0
-163 -115 106 0
163 115 106 0
163 -115 -106 0
-164 14 0
-164 16 0
164 -14 -16 0
-165 163 0
-165 164 0
165 -163 -164 0
-166 -164 -163 0
-166 164 163 0
166 -164 163 0
166 164 -163 0
-167 -113 -110 0
-167 113 110 0
167 -113 110 0
167 113 -110 0
-168 15 0
-168 16 0
168 -15 -16 0
-169 167 0
-169 168 0
169 -167 -168 0
-170 166 0
-170 169 0
170 -166 -169 0
-171 -165 0
-171 -170 0
171 165 170 0
-172 162 0
-172 -171 0
172 -162 171 0
-173 -161 0
-173 -172 0
173 161 172 0
-174 158 0
-174 -173 0
174 -158 173 0
-175 -157 0
-175 -174 0
175 157 174 0
-176 154 0
-176 -175 0
176 -154 175 0
-177 -153 0
-177 -176 0
177 153 176 0
-178 150 0
-178 -177 0
178 -150 177 0
-179 -149 0
-179 -178 0
179 149 178 0
-180 146 0
-180 -179 0
180 -146 179 0
-181 -145 0
-181 -180 0
181 145 180 0
-182 142 0
-182 -181 0
182 -142 181 0
-183 -141 0
-183 -182 0
183 141 182 0
-184 138 0
-184 -183 0
184 -138 183 0
-185 -137 0
-185 -184 0
185 137 184 0
-186 185 -134 0
-186 -185 134 0
186 185 134 0
186 -185 -134 0
-187 7 0
-187 17 0
187 -7 -17 0
-188 -187 -186 0
-188 187 186 0
188 -187 186 0
188 187 -186 0
-189 183 -138 0
-189 -183 138 0
189 183 138 0
189 -183 -138 0
-190 8 0
-190 17 0
190 -8 -17 0
-191 189 0
-191 190 0
191 -189 -190 0
-192 -190 -189 0
-192 190 189 0
192 -190 189 0
192 190 -189 0
-193 181 -142 0
-193 -181 142 0
193 181 142 0
193 -181 -142 0
-194 9 0
-194 17 0
194 -9 -17 0
-195 193 0
-195 194 0
195 -193 -194 0
-196 -194 -193 0
-196 194 193 0
196 -194 193 0
196 194 -193 0
-197 179 -146 0
-197 -179 146 0
197 179 146 0
197 -179 -146 0
-198 10 0
-198 17 0
198 -10 -17 0
-199 197 0
-199 198 0
199 -197 -198 0
-200 -198 -197 0
-200 198 197 0
200 -198 197 0
200 198 -197 0
-201 177 -150 0
-201 -177 150 0
201 177 150 0
201 -177 -150 0
-202 11 0
-202 17 0
202 -11 -17 0
-203 201 0
-203 202 0
203 -201 -202 0
-204 -202 -201 0
-204 202 201 0
204 -202 201 0
204 202 -201 0
-205 175 -154 0
-205 -175 154 0
205 175 154 0
205 -175 -154 0
-206 12 0
-206 17 0
206 -12 -17 0
-207 205 0
-207 206 0
207 -205 -206 0
-208 -206 -205 0
-208 206 205 0
208 -206 205 0
208 206 -205 0
-209 173 -158 0
-209 -173 158 0
209 173 158 0
209 -173 -158 0
-210 13 0
-210 17 0
210 -13 -17 0
-211 209 0
-211 210 0
211 -209 -210 0
-212 -210 -209 0
-212 210 209 0
212 -210 209 0
212 210 -209 0
-213 171 -162 0
-213 -171 162 0
213 171 162 0
213 -171 -162 0
-214 14 0
-214 17 0
214 -14 -17 0
-215 213 0
-215 214 0
215 -213 -214 0
-216 -214 -213 0
-216 214 213 0
216 -214 213 0
216 214 -213 0
-217 -169 -166 0
-217 169 166 0
217 -169 166 0
217 169 -166 0
-218 15 0
-218 17 0
218 -15 -17 0
-219 217 0
-219 218 0
219 -217 -218 0
-220 216 0
-220 219 0
220 -216 -219 0
-221 -215 0
-221 -220 0
221 215 220 0
-222 212 0
-222 -221 0
222 -212 221 0
-223 -211 0
-223 -222 0
223 211 222 0
-224 208 0
-224 -223 0
224 -208 223 0
-225 -207 0
-225 -224 0
225 207 224 0
-226 204 0
-226 -225 0
226 -204 225 0
-227 -203 0
-227 -226 0
227 203 226 0
-228 200 0
-228 -227 0
228 -200 227 0
-229 -199 0
-229 -228 0
229 199 228 0
-230 196 0
-230 -229 0
230 -196 229 0
-231 -195 0
-231 -230 0
231 195 230 0
-232 192 0
-232 -231 0
232 -192 231 0
-233 -191 0
-233 -232 0
233 191 232 0
-234 233 -188 0
-234 -233 188 0
234 233 188 0
234 -233 -188 0
-235 8 0
-235 18 0
235 -8 -18 0
-236 -235 -234 0
-236 235 234 0
236 -235 234 0
236 235 -234 0
-237 231 -192 0
-237 -231 192 0
237 231 192 0
237 -231 -192 0
-238 9 0
-238 18 0
238 -9 -18 0
-239 237 0
-239 238 0
239 -237 -238 0
-240 -238 -237 0
-240 238 237 0
240 -238 237 0
240 238 -237 0
-241 229 -196 0
-241 -229 196 0
241 229 196 0
241 -229 -196 0
-242 10 0
-242 18 0
242 -10 -18 0
-243 241 0
-243 242 0
243 -241 -242 0
-244 -242 -241 0
-244 242 241 0
244 -242 241 0
244 242 -241 0
-245 227 -200 0
-245 -227 200 0
245 227 200 0
245 -227 -200 0
-246 11 0
-246 18 0
246 -11 -18 0
-247 245 0
-247 246 0
247 -245 -246 0
-248 -246 -245 0
-248 246 245 0
248 -246 245 0
248 246 -245 0
-249 225 -204 0
-249 -225 204 0
249 225 204 0
249 -225 -204 0
-250 12 0
-250 18 0
250 -12 -18 0
-251 249 0
-251 250 0
251 -249 -250 0
-252 -250 -249 0
-252 250 249 0
252 -250 249 0
252 250 -249 0
-253 223 -208 0
-253 -223 208 0
253 223 208 0
253 -223 -208 0
-254 13 0
-254 18 0
254 -13 -18 0
-255 253 0
-255 254 0
255 -253 -254 0
-256 -254 -253 0
-256 254 253 0
256 -254 253 0
256 254 -253 0
-257 221 -212 0
-257 -221 212 0
257 221 212 0
257 -221 -212 0
-258 14 0
-258 18 0
258 -14 -18 0
-259 257 0
-259 258 0
259 -257 -258 0
-260 -258 -257 0
-260 258 257 0
260 -258 257 0
260 258 -257 0
-261 -219 -216 0
-261 219 216 0
261 -219 216 0
261 219 -216 0
-262 15 0
-262 18 0
262 -15 -18 0
-263 261 0
-263 262 0
263 -261 -262 0
-264 260 0
-264 263 0
264 -260 -263 0
-265 -259 0
-265 -264 0
265 259 264 0
-266 256 0
-266 -265 0
266 -256 265 0
-267 -255 0
-267 -266 0
267 255 266 0
-268 252 0
-268 -267 0
268 -252 267 0
-269 -251 0
-269 -268 0
269 251 268 0
-270 248 0
-270 -269 0
270 -248 269 0
-271 -247 0
-271 -270 0
271 247 270 0
-272 244 0
-272 -271 0
272 -244 271 0
-273 -243 0
-273 -272 0
273 243 272 0
-274 240 0
-274 -273 0
274 -240 273 0
-275 -239 0
-275 -274 0
275 239 274 0
-276 275 -236 0
-276 -275 236 0
276 275 236 0
276 -275 -236 0
-277 9 0
-277 19 0
277 -9 -19 0
-278 -277 -276 0
-278 277 276 0
278 -277 276 0
278 277 -276 0
-279 273 -240 0
-279 -273 240 0
279 273 240 0
279 -273 -240 0
-280 10 0
-280 19 0
280 -10 -19 0
-281 279 0
-281 280 0
281 -279 -280 0
-282 -280 -279 0
-282 280 279 0
282 -280 279 0
282 280 -279 0
-283 271 -244 0
-283 -271 244 0
283 271 244 0
283 -271 -244 0
-284 11 0
-284 19 0
284 -11 -19 0
-285 283 0
-285 284 0
285 -283 -284 0
-286 -284 -283 0
-286 284 283 0
286 -284 283 0
286 284 -283 0
-287 269 -248 0
-287 -269 248 0
287 269 248 0
287 -269 -248 0
-288 12 0
-288 19 0
288 -12 -19 0
-289 287 0
-289 288 0
289 -287 -288 0
-290 -288 -287 0
-290 288 287 0
290 -288 287 0
290 288 -287 0
-291 267 -252 0
-291 -267 252 0
291 267 252 0
291 -267 -252 0
-292 13 0
-292 19 0
292 -13 -19 0
-293 291 0
-293 292 0
293 -291 -292 0
-294 -292 -291 0
-294 292 291 0
294 -292 291 0
294 292 -291 0
-295 265 -256 0
-295 -265 256 0
295 265 256 0
295 -265 -256 0
-296 14 0
-296 19 0
296 -14 -19 0
-297 295 0
-297 296 0
297 -295 -296 0
-298 -296 -295 0
-298 296 295 0
298 -296 295 0
298 296 -295 0
-299 -263 -260 0
-299 263 260 0
299 -263 260 0
299 263 -260 0
-300 15 0
-300 19 0
300 -15 -19 0
-301 299 0
-301 300 0
301 -299 -300 0
-302 298 0
-302 301 0
302 -298 -301 0
-303 -297 0
-303 -302 0
303 297 302 0
-304 294 0
-304 -303 0
304 -294 303 0
-305 -293 0
-305 -304 0
305 293 304 0
-306 290 0
-306 -305 0
306 -290 305 0
-307 -289 0
-307 -306 0
307 289 306 0
-308 286 0
-308 -307 0
308 -286 307 0
-309 -285 0
-309 -308 0
309 285 308 0
-310 282 0
-310 -309 0
310 -282 309 0
-311 -281 0
-311 -310 0
311 281 310 0
-312 311 -278 0
-312 -311 278 0
312 311 278 0
312 -311 -278 0
-313 10 0
-313 20 0
313 -10 -20 0
-314 -313 -312 0
-314 313 312 0
314 -313 312 0
314 313 -312 0
-315 309 -282 0
-315 -309 282 0
315 309 282 0
315 -309 -282 0
-316 11 0
-316 20 0
316 -11 -20 0
-317 315 0
-317 316 0
317 -315 -316 0
-318 -316 -315 0
-318 316 315 0
318 -316 315 0
318 316 -315 0
-319 307 -286 0
-319 -307 286 0
319 307 286 0
319 -307 -286 0
-320 12 0
-320 20 0
320 -12 -20 0
-321 319 0
-321 320 0
321 -319 -320 0
-322 -320 -319 0
-322 320 319 0
322 -320 319 0
322 320 -319 0
-323 305 -290 0
-323 -305 290 0
323 305 290 0
323 -305 -290 0
-324 13 0
-324 20 0
324 -13 -20 0
-325 323 0
-325 324 0
325 -323 -324 0
-326 -324 -323 0
-326 324 323 0
326 -324 323 0
326 324 -323 0
-327 303 -294 0
-327 -303 294 0
327 303 294 0
327 -303 -294 0
-328 14 0
-328 20 0
328 -14 -20 0
-329 327 0
-329 328 0
329 -327 -328 0
-330 -328 -327 0
-330 328 327 0
330 -328 327 0
330 328 -327 0
-331 -301 -298 0
-331 301 298 0
331 -301 298 0
331 301 -298 0
-332 15 0
-332 20 0
332 -15 -20 0
-333 331 0
-333 332 0
333 -331 -332 0
-334 330 0
-334 333 0
334 -330 -333 0
-335 -329 0
-335 -334 0
335 329 334 0
-336 326 0
-336 -335 0
336 -326 335 0
-337 -325 0
-337 -336 0
337 325 336 0
-338 322 0
-338 -337 0
338 -322 337 0
-339 -321 0
-339 -338 0
339 321 338 0
-340 318 0
-340 -339 0
340 -318 339 0
-341 -317 0
-341 -340 0
341 317 340 0
-342 341 -314 0
-342 -341 314 0
342 341 314 0
342 -341 -314 0
-343 11 0
-343 21 0
343 -11 -21 0
-344 -343 -342 0
-344 343 342 0
344 -343 342 0
344 343 -342 0
-345 339 -318 0
-345 -339 318 0
345 339 318 0
345 -339 -318 0
-346 12 0
-346 21 0
346 -12 -21 0
-347 345 0
-347 346 0
347 -345 -346 0
-348 -346 -345 0
-348 346 345 0
348 -346 345 0
348 346 -345 0
-349 337 -322 0
-349 -337 322 0
349 337 322 0
349 -337 -322 0
-350 13 0
-350 21 0
350 -13 -21 0
-351 349 0
-351 350 0
351 -349 -350 0
-352 -350 -349 0
-352 350 349 0
352 -350 349 0
352 350 -349 0
-353 335 -326 0
-353 -335 326 0
353 335 326 0
353 -335 -326 0
-354 14 0
-354 21 0
354 -14 -21 0
-355 353 0
-355 354 0
355 -353 -354 0
-356 -354 -353 0
-356 354 353 0
356 -354 353 0
356 354 -353 0
-357 -333 -330 0
-357 333 330 0
357 -333 330 0
357 333 -330 0
-358 15 0
-358 21 0
358 -15 -21 0
-359 357 0
-359 358 0
359 -357 -358 0
-360 356 0
-360 359 0
360 -356 -359 0
-361 -355 0
-361 -360 0
361 355 360 0
-362 352 0
-362 -361 0
362 -352 361 0
-363 -351 0
-363 -362 0
363 351 362 0
-364 348 0
-364 -363 0
364 -348 363 0
-365 -347 0
-365 -364 0
365 347 364 0
-366 365 -344 0
-366 -365 344 0
366 365 344 0
366 -365 -344 0
-367 12 0
-367 22 0
367 -12 -22 0
-368 -367 -366 0
-368 367 366 0
368 -367 366 0
368 367 -366 0
-369 363 -348 0
-369 -363 348 0
369 363 348 0
369 -363 -348 0
-370 13 0
-370 22 0
370 -13 -22 0
-371 369 0
-371 370 0
371 -369 -370 0
-372 -370 -369 0
-372 370 369 0
372 -370 369 0
372 370 -369 0
-373 361 -352 0
-373 -361 352 0
373 361 352 0
373 -361 -352 0
-374 14 0
-374 22 0
374 -14 -22 0
-375 373 0
-375 374 0
375 -373 -374 0
-376 -374 -373 0
-376 374 373 0
376 -374 373 0
376 374 -373 0
-377 -359 -356 0
-377 359 356 0
377 -359 356 0
377 359 -356 0
-378 15 0
-378 22 0
378 -15 -22 0
-379 377 0
-379 378 0
379 -377 -378 0
-380 376 0
-380 379 0
380 -376 -379 0
-381 -375 0
-381 -380 0
381 375 380 0
-382 372 0
-382 -381 0
382 -372 381 0
-383 -371 0
-383 -382 0
383 371 382 0
-384 383 -368 0
-384 -383 368 0
384 383 368 0
384 -383 -368 0
-385 13 0
-385 23 0
385 -13 -23 0
-386 -385 -384 0
-386 385 384 0
386 -385 384 0
386 385 -384 0
-387 381 -372 0
-387 -381 372 0
387 381 372 0
387 -381 -372 0
-388 14 0
-388 23 0
388 -14 -23 0
-389 387 0
-389 388 0
389 -387 -388 0
-390 -388 -387 0
-390 388 387 0
390 -388 387 0
390 388 -387 0
-391 -379 -376 0
-391 379 376 0
391 -379 376 0
391 379 -376 0
-392 15 0
-392 23 0
392 -15 -23 0
-393 391 0
-393 392 0
393 -391 -392 0
-394 390 0
-394 393 0
394 -390 -393 0
-395 -389 0
-395 -394 0
395 389 394 0
-396 395 -386 0
-396 -395 386 0
396 395 386 0
396 -395 -386 0
-397 14 0
-397 24 0
397 -14 -24 0
-398 -397 -396 0
-398 397 396 0
398 -397 396 0
398 397 -396 0
-399 -393 -390 0
-399 393 390 0
399 -393 390 0
399 393 -390 0
-400 15 0
-400 24 0
400 -15 -24 0
-401 399 0
-401 400 0
401 -399 -400 0
-402 -401 -398 0
-402 401 398 0
402 -401 398 0
402 401 -398 0
-403 15 0
-403 25 0
403 -15 -25 0
-404 -403 -402 0
-404 403 402 0
404 -403 402 0
404 403 -402 0
-405 404 -1 0
-405 -404 1 0
-406 -400 -399 0
-406 400 399 0
406 -400 399 0
406 400 -399 0
-407 406 -26 0
-407 -406 26 0
-408 405 0
-408 407 0
-409 -392 -391 0
-409 392 391 0
409 -392 391 0
409 392 -391 0
-410 409 -27 0
-410 -409 27 0
-411 408 0
-411 410 0
-412 -378 -377 0
-412 378 377 0
412 -378 377 0
412 378 -377 0
-413 412 -28 0
-413 -412 28 0
-414 411 0
-414 413 0
-415 -358 -357 0
-415 358 357 0
415 -358 357 0
415 358 -357 0
-416 415 -29 0
-416 -415 29 0
-417 414 0
-417 416 0
-418 -332 -331 0
-418 332 331 0
418 -332 331 0
418 332 -331 0
-419 418 -30 0
-419 -418 30 0
-420 417 0
-420 419 0
-421 -300 -299 0
-421 300 299 0
421 -300 299 0
421 300 -299 0
-422 421 -31 0
-422 -421 31 0
-423 420 0
-423 422 0
-424 -262 -261 0
-424 262 261 0
424 -262 261 0
424 262 -261 0
-425 424 -32 0
-425 -424 32 0
-426 423 0
-426 425 0
-427 -218 -217 0
-427 218 217 0
427 -218 217 0
427 218 -217 0
-428 427 -33 0
-428 -427 33 0
-429 426 0
-429 428 0
-430 -168 -167 0
-430 168 167 0
430 -168 167 0
430 168 -167 0
-431 430 -34 0
-431 -430 34 0
-432 429 0
-432 431 0
-433 -112 -111 0
-433 112 111 0
433 -112 111 0
433 112 -111 0
-434 433 -35 0
-434 -433 35 0
-435 432 0
-435 434 0
-436 3 0
-436 15 0
436 -3 -15 0
-437 436 -36 0
-437 -436 36 0
-438 435 0
-438 437 0
-439 15 0
-439 25 0
439 -15 -25 0
-440 14 0
-440 24 0
440 -14 -24 0
-441 -440 -439 0
-441 440 439 0
441 -440 439 0
441 440 -439 0
-442 15 0
-442 24 0
442 -15 -24 0
-443 14 0
-443 23 0
443 -14 -23 0
-444 442 0
-444 443 0
444 -442 -443 0
-445 -443 -442 0
-445 443 442 0
445 -443 442 0
445 443 -442 0
-446 15 0
-446 23 0
446 -15 -23 0
-447 14 0
-447 22 0
447 -14 -22 0
-448 446 0
-448 447 0
448 -446 -447 0
-449 -447 -446 0
-449 447 446 0
449 -447 446 0
449 447 -446 0
-450 15 0
-450 22 0
450 -15 -22 0
-451 14 0
-451 21 0
451 -14 -21 0
-452 450 0
-452 451 0
452 -450 -451 0
-453 -451 -450 0
-453 451 450 0
453 -451 450 0
453 451 -450 0
-454 15 0
-454 21 0
454 -15 -21 0
-455 14 0
-455 20 0
455 -14 -20 0
-456 454 0
-456 455 0
456 -454 -455 0
-457 -455 -454 0
-457 455 454 0
457 -455 454 0
457 455 -454 0
-458 15 0
-458 20 0
458 -15 -20 0
-459 14 0
-459 19 0
459 -14 -19 0
-460 458 0
-460 459 0
460 -458 -459 0
-461 -459 -458 0
-461 459 458 0
461 -459 458 0
461 459 -458 0
-462 15 0
-462 19 0
462 -15 -19 0
-463 14 0
-463 18 0
463 -14 -18 0
-464 462 0
-464 463 0
464 -462 -463 0
-465 -463 -462 0
-465 463 462 0
465 -463 462 0
465 463 -462 0
-466 15 0
-466 18 0
466 -15 -18 0
-467 14 0
-467 17 0
467 -14 -17 0
-468 466 0
-468 467 0
468 -466 -467 0
-469 -467 -466 0
-469 467 466 0
469 -467 466 0
469 467 -466 0
-470 15 0
-470 17 0
470 -15 -17 0
-471 14 0
-471 16 0
471 -14 -16 0
-472 470 0
-472 471 0
472 -470 -471 0
-473 -471 -470 0
-473 471 470 0
473 -471 470 0
473 471 -470 0
-474 15 0
-474 16 0
474 -15 -16 0
-475 5 0
-475 14 0
475 -5 -14 0
-476 474 0
-476 475 0
476 -474 -475 0
-477 -475 -474 0
-477 475 474 0
477 -475 474 0
477 475 -474 0
-478 5 0
-478 15 0
478 -5 -15 0
-479 3 0
-479 14 0
479 -3 -14 0
-480 478 0
-480 479 0
480 -478 -479 0
-481 477 0
-481 480 0
481 -477 -480 0
-482 -476 0
-482 -481 0
482 476 481 0
-483 473 0
-483 -482 0
483 -473 482 0
-484 -472 0
-484 -483 0
484 472 483 0
-485 469 0
-485 -484 0
485 -469 484 0
-486 -468 0
-486 -485 0
486 468 485 0
-487 465 0
-487 -486 0
487 -465 486 0
-488 -464 0
-488 -487 0
488 464 487 0
-489 461 0
-489 -488 0
489 -461 488 0
-490 -460 0
-490 -489 0
490 460 489 0
-491 457 0
-491 -490 0
491 -457 490 0
-492 -456 0
-492 -491 0
492 456 491 0
-493 453 0
-493 -492 0
493 -453 492 0
-494 -452 0
-494 -493 0
494 452 493 0
-495 449 0
-495 -494 0
495 -449 494 0
-496 -448 0
-496 -495 0
496 448 495 0
-497 445 0
-497 -496 0
497 -445 496 0
-498 -444 0
-498 -497 0
498 444 497 0
-499 498 -441 0
-499 -498 441 0
499 498 441 0
499 -498 -441 0
-500 13 0
-500 23 0
500 -13 -23 0
-501 -500 -499 0
-501 500 499 0
501 -500 499 0
501 500 -499 0
-502 496 -445 0
-502 -496 445 0
502 496 445 0
502 -496 -445 0
-503 13 0
-503 22 0
503 -13 -22 0
-504 502 0
-504 503 0
504 -502 -503 0
-505 -503 -502 0
-505 503 502 0
505 -503 502 0
505 503 -502 0
-506 494 -449 0
-506 -494 449 0
506 494 449 0
506 -494 -449 0
-507 13 0
-507 21 0
507 -13 -21 0
-508 506 0
-508 507 0
508 -506 -507 0
-509 -507 -506 0
-509 507 506 0
509 -507 506 0
509 507 -506 0
-510 492 -453 0
-510 -492 453 0
510 492 453 0
510 -492 -453 0
-511 13 0
-511 20 0
511 -13 -20 0
-512 510 0
-512 511 0
512 -510 -511 0
-513 -511 -510 0
-513 511 510 0
513 -511 510 0
513 511 -510 0
-514 490 -457 0
-514 -490 457 0
514 490 457 0
514 -490 -457 0
-515 13 0
-515 19 0
515 -13 -19 0
-516 514 0
-516 515 0
516 -514 -515 0
-517 -515 -514 0
-517 515 514 0
517 -515 514 0
517 515 -514 0
-518 488 -461 0
-518 -488 461 0
518 488 461 0
518 -488 -461 0
-519 13 0
-519 18 0
519 -13 -18 0
-520 518 0
-520 519 0
520 -518 -519 0
-521 -519 -518 0
-521 519 518 0
521 -519 518 0
521 519 -518 0
-522 486 -465 0
-522 -486 465 0
522 486 465 0
522 -486 -465 0
-523 13 0
-523 17 0
523 -13 -17 0
-524 522 0
-524 523 0
524 -522 -523 0
-525 -523 -522 0
-525 523 522 0
525 -523 522 0
525 523 -522 0
-526 484 -469 0
-526 -484 469 0
526 484 469 0
526 -484 -469 0
-527 13 0
-527 16 0
527 -13 -16 0
-528 526 0
-528 527 0
528 -526 -527 0
-529 -527 -526 0
-529 527 526 0
529 -527 526 0
529 527 -526 0
-530 482 -473 0
-530 -482 473 0
530 482 473 0
530 -482 -473 0
-531 5 0
-531 13 0
531 -5 -13 0
-532 530 0
-532 531 0
532 -530 -531 0
-533 -531 -530 0
-533 531 530 0
533 -531 530 0
533 531 -530 0
-534 -480 -477 0
-534 480 477 0
534 -480 477 0
534 480 -477 0
-535 3 0
-535 13 0
535 -3 -13 0
-536 534 0
-536 535 0
536 -534 -535 0
-537 533 0
-537 536 0
537 -533 -536 0
-538 -532 0
-538 -537 0
538 532 537 0
-539 529 0
-539 -538 0
539 -529 538 0
-540 -528 0
-540 -539 0
540 528 539 0
-541 525 0
-541 -540 0
541 -525 540 0
-542 -524 0
-542 -541 0
542 524 541 0
-543 521 0
-543 -542 0
543 -521 542 0
-544 -520 0
-544 -543 0
544 520 543 0
-545 517 0
-545 -544 0
545 -517 544 0
-546 -516 0
-546 -545 0
546 516 545 0
-547 513 0
-547 -546 0
547 -513 546 0
-548 -512 0
-548 -547 0
548 512 547 0
-549 509 0
-549 -548 0
549 -509 548 0
-550 -508 0
-550 -549 0
550 508 549 0
-551 505 0
-551 -550 0
551 -505 550 0
-552 -504 0
-552 -551 0
552 504 551 0
-553 552 -501 0
-553 -552 501 0
553 552 501 0
553 -552 -501 0
-554 12 0
-554 22 0
554 -12 -22 0
-555 -554 -553 0
-555 554 553 0
555 -554 553 0
555 554 -553 0
-556 550 -505 0
-556 -550 505 0
556 550 505 0
556 -550 -505 0
-557 12 0
-557 21 0
557 -12 -21 0
-558 556 0
-558 557 0
558 -556 -557 0
-559 -557 -556 0
-559 557 556 0
559 -557 556 0
559 557 -556 0
-560 548 -509 0
-560 -548 509 0
560 548 509 0
560 -548 -509 0
-561 12 0
-561 20 0
561 -12 -20 0
-562 560 0
-562 561 0
562 -560 -561 0
-563 -561 -560 0
-563 561 560 0
563 -561 560 0
563 561 -560 0
-564 546 -513 0
-564 -546 513 0
564 546 513 0
564 -546 -513 0
-565 12 0
-565 19 0
565 -12 -19 0
-566 564 0
-566 565 0
566 -564 -565 0
-567 -565 -564 0
-567 565 564 0
567 -565 564 0
567 565 -564 0
-568 544 -517 0
-568 -544 517 0
568 544 517 0
568 -544 -517 0
-569 12 0
-569 18 0
569 -12 -18 0
-570 568 0
-570 569 0
570 -568 -569 0
-571 -569 -568 0
-571 569 568 0
571 -569 568 0
571 569 -568 0
-572 542 -521 0
-572 -542 521 0
572 542 521 0
572 -542 -521 0
-573 12 0
-573 17 0
573 -12 -17 0
-574 572 0
-574 573 0
574 -572 -573 0
-575 -573 -572 0
-575 573 572 0
575 -573 572 0
575 573 -572 0
-576 540 -525 0
-576 -540 525 0
576 540 525 0
576 -540 -525 0
-577 12 0
-577 16 0
577 -12 -16 0
-578 576 0
-578 577 0
578 -576 -577 0
-579 -577 -576 0
-579 577 576 0
579 -577 576 0
579 577 -576 0
-580 538 -529 0
-580 -538 529 0
580 538 529 0
580 -538 -529 0
-581 5 0
-581 12 0
581 -5 -12 0
-582 580 0
-582 581 0
582 -580 -581 0
-583 -581 -580 0
-583 581 580 0
583 -581 580 0
583 581 -580 0
-584 -536 -533 0
-584 536 533 0
584 -536 533 0
584 536 -533 0
-585 3 0
-585 12 0
585 -3 -12 0
-586 584 0
-586 585 0
586 -584 -585 0
-587 583 0
-587 586 0
587 -583 -586 0
-588 -582 0
-588 -587 0
588 582 587 0
-589 579 0
-589 -588 0
589 -579 588 0
-590 -578 0
-590 -589 0
590 578 589 0
-591 575 0
-591 -590 0
591 -575 590 0
-592 -574 0
-592 -591 0
592 574 591 0
-593 571 0
-593 -592 0
593 -571 592 0
-594 -570 0
-594 -593 0
594 570 593 0
-595 567 0
-595 -594 0
595 -567 594 0
-596 -566 0
-596 -595 0
596 566 595 0
-597 563 0
-597 -596 0
597 -563 596 0
-598 -562 0
-598 -597 0
598 562 597 0
-599 559 0
-599 -598 0
599 -559 598 0
-600 -558 0
-600 -599 0
600 558 599 0
-601 600 -555 0
-601 -600 555 0
601 600 555 0
601 -600 -555 0
-602 11 0
-602 21 0
602 -11 -21 0
-603 -602 -601 0
-603 602 601 0
603 -602 601 0
603 602 -601 0
-604 598 -559 0
-604 -598 559 0
604 598 559 0
604 -598 -559 0
-605 11 0
-605 20 0
605 -11 -20 0
-606 604 0
-606 605 0
606 -604 -605 0
-607 -605 -604 0
-607 605 604 0
607 -605 604 0
607 605 -604 0
-608 596 -563 0
-608 -596 563 0
608 596 563 0
608 -596 -563 0
-609 11 0
-609 19 0
609 -11 -19 0
-610 608 0
-610 609 0
610 -608 -609 0
-611 -609 -608 0
-611 609 608 0
611 -609 608 0
611 609 -608 0
-612 594 -567 0
-612 -594 567 0
612 594 567 0
612 -594 -567 0
-613 11 0
-613 18 0
613 -11 -18 0
-614 612 0
-614 613 0
614 -612 -613 0
-615 -613 -612 0
-615 613 612 0
615 -613 612 0
615 613 -612 0
-616 592 -571 0
-616 -592 571 0
616 592 571 0
616 -592 -571 0
-617 11 0
-617 17 0
617 -11 -17 0
-618 616 0
-618 617 0
618 -616 -617 0
-619 -617 -616 0
-619 617 616 0
619 -617 616 0
619 617 -616 0
-620 590 -575 0
-620 -590 575 0
620 590 575 0
620 -590 -575 0
-621 11 0
-621 16 0
621 -11 -16 0
-622 620 0
-622 621 0
622 -620 -621 0
-623 -621 -620 0
-623 621 620 0
623 -621 620 0
623 621 -620 0
-624 588 -579 0
-624 -588 579 0
624 588 579 0
624 -588 -579 0
-625 5 0
-625 11 0
625 -5 -11 0
-626 624 0
-626 625 0
626 -624 -625 0
-627 -625 -624 0
-627 625 624 0
627 -625 624 0
627 625 -624 0
-628 -586 -583 0
-628 586 583 0
628 -586 583 0
628 586 -583 0
-629 3 0
-629 11 0
629 -3 -11 0
-630 628 0
-630 629 0
630 -628 -629 0
-631 627 0
-631 630 0
631 -627 -630 0
-632 -626 0
-632 -631 0
632 626 631 0
-633 623 0
-633 -632 0
633 -623 632 0
-634 -622 0
-634 -633 0
634 622 633 0
-635 619 0
-635 -634 0
635 -619 634 0
-636 -618 0
-636 -635 0
636 618 635 0
-637 615 0
-637 -636 0
637 -615 636 0
-638 -614 0
-638 -637 0
638 614 637 0
-639 611 0
-639 -638 0
639 -611 638 0
-640 -610 0
-640 -639 0
640 610 639 0
-641 607 0
-641 -640 0
641 -607 640 0
-642 -606 0
-642 -641 0
642 606 641 0
-643 642 -603 0
-643 -642 603 0
643 642 603 0
643 -642 -603 0
-644 10 0
-644 20 0
644 -10 -20 0
-645 -644 -643 0
-645 644 643 0
645 -644 643 0
645 644 -643 0
-646 640 -607 0
-646 -640 607 0
646 640 607 0
646 -640 -607 0
-647 10 0
-647 19 0
647 -10 -19 0
-648 646 0
-648 647 0
648 -646 -647 0
-649 -647 -646 0
-649 647 646 0
649 -647 646 0
649 647 -646 0
-650 638 -611 0
-650 -638 611 0
650 638 611 0
650 -638 -611 0
-651 10 0
-651 18 0
651 -10 -18 0
-652 650 0
-652 651 0
652 -650 -651 0
-653 -651 -650 0
-653 651 650 0
653 -651 650 0
653 651 -650 0
-654 636 -615 0
-654 -636 615 0
654 636 615 0
654 -636 -615 0
-655 10 0
-655 17 0
655 -10 -17 0
-656 654 0
-656 655 0
656 -654 -655 0
-657 -655 -654 0
-657 655 654 0
657 -655 654 0
657 655 -654 0
-658 634 -619 0
-658 -634 619 0
658 634 619 0
658 -634 -619 0
-659 10 0
-659 16 0
659 -10 -16 0
-660 658 0
-660 659 0
660 -658 -659 0
-661 -659 -658 0
-661 659 658 0
661 -659 658 0
661 659 -658 0
-662 632 -623 0
-662 -632 623 0
662 632 623 0
662 -632 -623 0
-663 5 0
-663 10 0
663 -5 -10 0
-664 662 0
-664 663 0
664 -662 -663 0
-665 -663 -662 0
-665 663 662 0
665 -663 662 0
665 663 -662 0
-666 -630 -627 0
-666 630 627 0
666 -630 627 0
666 630 -627 0
-667 3 0
-667 10 0
667 -3 -10 0
-668 666 0
-668 667 0
668 -666 -667 0
-669 665 0
-669 668 0
669 -665 -668 0
-670 -664 0
-670 -669 0
670 664 669 0
-671 661 0
-671 -670 0
671 -661 670 0
-672 -660 0
-672 -671 0
672 660 671 0
-673 657 0
-673 -672 0
673 -657 672 0
-674 -656 0
-674 -673 0
674 656 673 0
-675 653 0
-675 -674 0
675 -653 674 0
-676 -652 0
-676 -675 0
676 652 675 0
-677 649 0
-677 -676 0
677 -649 676 0
-678 -648 0
-678 -677 0
678 648 677 0
-679 678 -645 0
-679 -678 645 0
679 678 645 0
679 -678 -645 0
-680 9 0
-680 19 0
680 -9 -19 0
-681 -680 -679 0
-681 680 679 0
681 -680 679 0
681 680 -679 0
-682 676 -649 0
-682 -676 649 0
682 676 649 0
682 -676 -649 0
-683 9 0
-683 18 0
683 -9 -18 0
-684 682 0
-684 683 0
684 -682 -683 0
-685 -683 -682 0
-685 683 682 0
685 -683 682 0
685 683 -682 0
-686 674 -653 0
-686 -674 653 0
686 674 653 0
686 -674 -653 0
-687 9 0
-687 17 0
687 -9 -17 0
-688 686 0
-688 687 0
688 -686 -687 0
-689 -687 -686 0
-689 687 686 0
689 -687 686 0
689 687 -686 0
-690 672 -657 0
-690 -672 657 0
690 672 657 0
690 -672 -657 0
-691 9 0
-691 16 0
691 -9 -16 0
-692 690 0
-692 691 0
692 -690 -691 0
-693 -691 -690 0
-693 691 690 0
693 -691 690 0
693 691 -690 0
-694 670 -661 0
-694 -670 661 0
694 670 661 0
694 -670 -661 0
-695 5 0
-695 9 0
695 -5 -9 0
-696 694 0
-696 695 0
696 -694 -695 0
-697 -695 -694 0
-697 695 694 0
697 -695 694 0
697 695 -694 0
-698 -668 -665 0
-698 668 665 0
698 -668 665 0
698 668 -665 0
-699 3 0
-699 9 0
699 -3 -9 0
-700 698 0
-700 699 0
700 -698 -699 0
-701 697 0
-701 700 0
701 -697 -700 0
-702 -696 0
-702 -701 0
702 696 701 0
-703 693 0
-703 -702 0
703 -693 702 0
-704 -692 0
-704 -703 0
704 692 703 0
-705 689 0
-705 -704 0
705 -689 704 0
-706 -688 0
-706 -705 0
706 688 705 0
-707 685 0
-707 -706 0
707 -685 706 0
-708 -684 0
-708 -707 0
708 684 707 0
-709 708 -681 0
-709 -708 681 0
709 708 681 0
709 -708 -681 0
-710 8 0
-710 18 0
710 -8 -18 0
-711 -710 -709 0
-711 710 709 0
711 -710 709 0
711 710 -709 0
-712 706 -685 0
-712 -706 685 0
712 706 685 0
712 -706 -685 0
-713 8 0
-713 17 0
713 -8 -17 0
-714 712 0
-714 713 0
714 -712 -713 0
-715 -713 -712 0
-715 713 712 0
715 -713 712 0
715 713 -712 0
-716 704 -689 0
-716 -704 689 0
716 704 689 0
716 -704 -689 0
-717 8 0
-717 16 0
717 -8 -16 0
-718 716 0
-718 717 0
718 -716 -717 0
-719 -717 -716 0
-719 717 716 0
719 -717 716 0
719 717 -716 0
-720 702 -693 0
-720 -702 693 0
720 702 693 0
720 -702 -693 0
-721 5 0
-721 8 0
721 -5 -8 0
-722 720 0
-722 721 0
722 -720 -721 0
-723 -721 -720 0
-723 721 720 0
723 -721 720 0
723 721 -720 0
-724 -700 -697 0
-724 700 697 0
724 -700 697 0
724 700 -697 0
-725 3 0
-725 8 0
725 -3 -8 0
-726 724 0
-726 725 0
726 -724 -725 0
-727 723 0
-727 726 0
727 -723 -726 0
-728 -722 0
-728 -727 0
728 722 727 0
-729 719 0
-729 -728 0
729 -719 728 0
-730 -718 0
-730 -729 0
730 718 729 0
-731 715 0
-731 -730 0
731 -715 730 0
-732 -714 0
-732 -731 0
732 714 731 0
-733 732 -711 0
-733 -732 711 0
733 732 711 0
733 -732 -711 0
-734 7 0
-734 17 0
734 -7 -17 0
-735 -734 -733 0
-735 734 733 0
735 -734 733 0
735 734 -733 0
-736 730 -715 0
-736 -730 715 0
736 730 715 0
736 -730 -715 0
-737 7 0
-737 16 0
737 -7 -16 0
-738 736 0
-738 737 0
738 -736 -737 0
-739 -737 -736 0
-739 737 736 0
739 -737 736 0
739 737 -736 0
-740 728 -719 0
-740 -728 719 0
740 728 719 0
740 -728 -719 0
-741 5 0
-741 7 0
741 -5 -7 0
-742 740 0
-742 741 0
742 -740 -741 0
-743 -741 -740 0
-743 741 740 0
743 -741 740 0
743 741 -740 0
-744 -726 -723 0
-744 726 723 0
744 -726 723 0
744 726 -723 0
-745 3 0
-745 7 0
745 -3 -7 0
-746 744 0
-746 745 0
746 -744 -745 0
-747 743 0
-747 746 0
747 -743 -746 0
-748 -742 0
-748 -747 0
748 742 747 0
-749 739 0
-749 -748 0
749 -739 748 0
-750 -738 0
-750 -749 0
750 738 749 0
-751 750 -735 0
-751 -750 735 0
751 750 735 0
751 -750 -735 0
-752 6 0
-752 16 0
752 -6 -16 0
-753 -752 -751 0
-753 752 751 0
753 -752 751 0
753 752 -751 0
-754 748 -739 0
-754 -748 739 0
754 748 739 0
754 -748 -739 0
-755 5 0
-755 6 0
755 -5 -6 0
-756 754 0
-756 755 0
756 -754 -755 0
-757 -755 -754 0
-757 755 754 0
757 -755 754 0
757 755 -754 0
-758 -746 -743 0
-758 746 743 0
758 -746 743 0
758 746 -743 0
-759 3 0
-759 6 0
759 -3 -6 0
-760 758 0
-760 759 0
760 -758 -759 0
-761 757 0
-761 760 0
761 -757 -760 0
-762 -756 0
-762 -761 0
762 756 761 0
-763 762 -753 0
-763 -762 753 0
763 762 753 0
763 -762 -753 0
-764 4 0
-764 5 0
764 -4 -5 0
-765 -764 -763 0
-765 764 763 0
765 -764 763 0
765 764 -763 0
-766 -760 -757 0
-766 760 757 0
766 -760 757 0
766 760 -757 0
-767 3 0
-767 4 0
767 -3 -4 0
-768 766 0
-768 767 0
768 -766 -767 0
-769 -768 -765 0
-769 768 765 0
769 -768 765 0
769 768 -765 0
-770 2 0
-770 3 0
770 -2 -3 0
-771 -770 -769 0
-771 770 769 0
771 -770 769 0
771 770 -769 0
-772 771 -37 0
-772 -771 37 0
-773 -767 -766 0
-773 767 766 0
773 -767 766 0
773 767 -766 0
-774 773 -38 0
-774 -773 38 0
-775 772 0
-775 774 0
-776 -759 -758 0
-776 759 758 0
776 -759 758 0
776 759 -758 0
-777 776 -39 0
-777 -776 39 0
-778 775 0
-778 777 0
-779 -745 -744 0
-779 745 744 0
779 -745 744 0
779 745 -744 0
-780 779 -40 0
-780 -779 40 0
-781 778 0
-781 780 0
-782 -725 -724 0
-782 725 724 0
782 -725 724 0
782 725 -724 0
-783 782 -41 0
-783 -782 41 0
-784 781 0
-784 783 0
-785 -699 -698 0
-785 699 698 0
785 -699 698 0
785 699 -698 0
-786 785 -42 0
-786 -785 42 0
-787 784 0
-787 786 0
-788 -667 -666 0
-788 667 666 0
788 -667 666 0
788 667 -666 0
-789 788 -43 0
-789 -788 43 0
-790 787 0
-790 789 0
-791 -629 -628 0
-791 629 628 0
791 -629 628 0
791 629 -628 0
-792 791 -44 0
-792 -791 44 0
-793 790 0
-793 792 0
-794 -585 -584 0
-794 585 584 0
794 -585 584 0
794 585 -584 0
-795 794 -45 0
-795 -794 45 0
-796 793 0
-796 795 0
-797 -535 -534 0
-797 535 534 0
797 -535 534 0
797 535 -534 0
-798 797 -46 0
-798 -797 46 0
-799 796 0
-799 798 0
-800 -479 -478 0
-800 479 478 0
800 -479 478 0
800 479 -478 0
-801 800 -47 0
-801 -800 47 0
-802 799 0
-802 801 0
-803 3 0
-803 15 0
803 -3 -15 0
-804 803 -48 0
-804 -803 48 0
-805 802 0
-805 804 0
-806 438 0
-806 805 0
-807 -71 0
-807 806 0
807 0
