p cnf 1468 4699
-37 34 0
-37 35 0
37 -34 -35 0
-38 1 0
-38 37 0
38 -1 -37 0
-39 22 0
-39 35 0
39 -22 -35 0
-40 33 0
-40 34 0
40 -33 -34 0
-41 39 0
-41 40 0
41 -39 -40 0
-42 -40 -39 0
-42 40 39 0
42 -40 39 0
42 40 -39 0
-43 2 0
-43 42 0
43 -2 -42 0
-44 -43 -38 0
-44 43 38 0
44 -43 38 0
44 43 -38 0
-45 2 0
-45 37 0
45 -2 -37 0
-46 3 0
-46 42 0
46 -3 -42 0
-47 45 0
-47 46 0
47 -45 -46 0
-48 -46 -45 0
-48 46 45 0
48 -46 45 0
48 46 -45 0
-49 3 0
-49 37 0
49 -3 -37 0
-50 4 0
-50 42 0
50 -4 -42 0
-51 49 0
-51 50 0
51 -49 -50 0
-52 -50 -49 0
-52 50 49 0
52 -50 49 0
52 50 -49 0
-53 4 0
-53 37 0
53 -4 -37 0
-54 5 0
-54 42 0
54 -5 -42 0
-55 53 0
-55 54 0
55 -53 -54 0
-56 -54 -53 0
-56 54 53 0
56 -54 53 0
56 54 -53 0
-57 5 0
-57 37 0
57 -5 -37 0
-58 6 0
-58 42 0
58 -6 -42 0
-59 57 0
-59 58 0
59 -57 -58 0
-60 -58 -57 0
-60 58 57 0
60 -58 57 0
60 58 -57 0
-61 6 0
-61 37 0
61 -6 -37 0
-62 7 0
-62 42 0
62 -7 -42 0
-63 61 0
-63 62 0
63 -61 -62 0
-64 -62 -61 0
-64 62 61 0
64 -62 61 0
64 62 -61 0
-65 7 0
-65 37 0
65 -7 -37 0
-66 8 0
-66 42 0
66 -8 -42 0
-67 65 0
-67 66 0
67 -65 -66 0
-68 -66 -65 0
-68 66 65 0
68 -66 65 0
68 66 -65 0
-69 8 0
-69 37 0
69 -8 -37 0
-70 9 0
-70 42 0
70 -9 -42 0
-71 69 0
-71 70 0
71 -69 -70 0
-72 -70 -69 0
-72 70 69 0
72 -70 69 0
72 70 -69 0
-73 9 0
-73 37 0
73 -9 -37 0
-74 10 0
-74 42 0
74 -10 -42 0
-75 73 0
-75 74 0
75 -73 -74 0
-76 -74 -73 0
-76 74 73 0
76 -74 73 0
76 74 -73 0
-77 10 0
-77 37 0
77 -10 -37 0
-78 11 0
-78 42 0
78 -11 -42 0
-79 77 0
-79 78 0
79 -77 -78 0
-80 -78 -77 0
-80 78 77 0
80 -78 77 0
80 78 -77 0
-81 11 0
-81 37 0
81 -11 -37 0
-82 36 0
-82 42 0
82 -36 -42 0
-83 81 0
-83 82 0
83 -81 -82 0
-84 80 0
-84 83 0
84 -80 -83 0
-85 -79 0
-85 -84 0
85 79 84 0
-86 76 0
-86 -85 0
86 -76 85 0
-87 -75 0
-87 -86 0
87 75 86 0
-88 72 0
-88 -87 0
88 -72 87 0
-89 -71 0
-89 -88 0
89 71 88 0
-90 68 0
-90 -89 0
90 -68 89 0
-91 -67 0
-91 -90 0
91 67 90 0
-92 64 0
-92 -91 0
92 -64 91 0
-93 -63 0
-93 -92 0
93 63 92 0
-94 60 0
-94 -93 0
94 -60 93 0
-95 -59 0
-95 -94 0
95 59 94 0
-96 56 0
-96 -95 0
96 -56 95 0
-97 -55 0
-97 -96 0
97 55 96 0
-98 52 0
-98 -97 0
98 -52 97 0
-99 -51 0
-99 -98 0
99 51 98 0
-100 48 0
-100 -99 0
100 -48 99 0
-101 -47 0
-101 -100 0
101 47 100 0
-102 101 -44 0
-102 -101 44 0
102 101 44 0
102 -101 -44 0
-103 21 0
-103 35 0
103 -21 -35 0
-104 22 0
-104 33 0
104 -22 -33 0
-105 103 0
-105 104 0
105 -103 -104 0
-106 -104 -103 0
-106 104 103 0
106 -104 103 0
106 104 -103 0
-107 41 0
-107 106 0
107 -41 -106 0
-108 -106 -41 0
-108 106 41 0
108 -106 41 0
108 106 -41 0
-109 32 0
-109 34 0
109 -32 -34 0
-110 108 0
-110 109 0
110 -108 -109 0
-111 -109 -108 0
-111 109 108 0
111 -109 108 0
111 109 -108 0
-112 3 0
-112 111 0
112 -3 -111 0
-113 -112 -102 0
-113 112 102 0
113 -112 102 0
113 112 -102 0
-114 99 -48 0
-114 -99 48 0
114 99 48 0
114 -99 -48 0
-115 4 0
-115 111 0
115 -4 -111 0
-116 114 0
-116 115 0
116 -114 -115 0
-117 -115 -114 0
-117 115 114 0
117 -115 114 0
117 115 -114 0
-118 97 -52 0
-118 -97 52 0
118 97 52 0
118 -97 -52 0
-119 5 0
-119 111 0
119 -5 -111 0
-120 118 0
-120 119 0
120 -118 -119 0
-121 -119 -118 0
-121 119 118 0
121 -119 118 0
121 119 -118 0
-122 95 -56 0
-122 -95 56 0
122 95 56 0
122 -95 -56 0
-123 6 0
-123 111 0
123 -6 -111 0
-124 122 0
-124 123 0
124 -122 -123 0
-125 -123 -122 0
-125 123 122 0
125 -123 122 0
125 123 -122 0
-126 93 -60 0
-126 -93 60 0
126 93 60 0
126 -93 -60 0
-127 7 0
-127 111 0
127 -7 -111 0
-128 126 0
-128 127 0
128 -126 -127 0
-129 -127 -126 0
-129 127 126 0
129 -127 126 0
129 127 -126 0
-130 91 -64 0
-130 -91 64 0
130 91 64 0
130 -91 -64 0
-131 8 0
-131 111 0
131 -8 -111 0
-132 130 0
-132 131 0
132 -130 -131 0
-133 -131 -130 0
-133 131 130 0
133 -131 130 0
133 131 -130 0
-134 89 -68 0
-134 -89 68 0
134 89 68 0
134 -89 -68 0
-135 9 0
-135 111 0
135 -9 -111 0
-136 134 0
-136 135 0
136 -134 -135 0
-137 -135 -134 0
-137 135 134 0
137 -135 134 0
137 135 -134 0
-138 87 -72 0
-138 -87 72 0
138 87 72 0
138 -87 -72 0
-139 10 0
-139 111 0
139 -10 -111 0
-140 138 0
-140 139 0
140 -138 -139 0
-141 -139 -138 0
-141 139 138 0
141 -139 138 0
141 139 -138 0
-142 85 -76 0
-142 -85 76 0
142 85 76 0
142 -85 -76 0
-143 11 0
-143 111 0
143 -11 -111 0
-144 142 0
-144 143 0
144 -142 -143 0
-145 -143 -142 0
-145 143 142 0
145 -143 142 0
145 143 -142 0
-146 -83 -80 0
-146 83 80 0
146 -83 80 0
146 83 -80 0
-147 36 0
-147 111 0
147 -36 -111 0
-148 146 0
-148 147 0
148 -146 -147 0
-149 145 0
-149 148 0
149 -145 -148 0
-150 -144 0
-150 -149 0
150 144 149 0
-151 141 0
-151 -150 0
151 -141 150 0
-152 -140 0
-152 -151 0
152 140 151 0
-153 137 0
-153 -152 0
153 -137 152 0
-154 -136 0
-154 -153 0
154 136 153 0
-155 133 0
-155 -154 0
155 -133 154 0
-156 -132 0
-156 -155 0
156 132 155 0
-157 129 0
-157 -156 0
157 -129 156 0
-158 -128 0
-158 -157 0
158 128 157 0
-159 125 0
-159 -158 0
159 -125 158 0
-160 -124 0
-160 -159 0
160 124 159 0
-161 121 0
-161 -160 0
161 -121 160 0
-162 -120 0
-162 -161 0
162 120 161 0
-163 117 0
-163 -162 0
163 -117 162 0
-164 -116 0
-164 -163 0
164 116 163 0
-165 164 -113 0
-165 -164 113 0
165 164 113 0
165 -164 -113 0
-166 20 0
-166 35 0
166 -20 -35 0
-167 21 0
-167 33 0
167 -21 -33 0
-168 166 0
-168 167 0
168 -166 -167 0
-169 -167 -166 0
-169 167 166 0
169 -167 166 0
169 167 -166 0
-170 -105 0
-170 -107 0
170 105 107 0
-171 169 0
-171 -170 0
171 -169 170 0
-172 170 -169 0
-172 -170 169 0
172 170 169 0
172 -170 -169 0
-173 22 0
-173 32 0
173 -22 -32 0
-174 172 0
-174 173 0
174 -172 -173 0
-175 -173 -172 0
-175 173 172 0
175 -173 172 0
175 173 -172 0
-176 110 0
-176 175 0
176 -110 -175 0
-177 -175 -110 0
-177 175 110 0
177 -175 110 0
177 175 -110 0
-178 31 0
-178 34 0
178 -31 -34 0
-179 177 0
-179 178 0
179 -177 -178 0
-180 -178 -177 0
-180 178 177 0
180 -178 177 0
180 178 -177 0
-181 4 0
-181 180 0
181 -4 -180 0
-182 -181 -165 0
-182 181 165 0
182 -181 165 0
182 181 -165 0
-183 162 -117 0
-183 -162 117 0
183 162 117 0
183 -162 -117 0
-184 5 0
-184 180 0
184 -5 -180 0
-185 183 0
-185 184 0
185 -183 -184 0
-186 -184 -183 0
-186 184 183 0
186 -184 183 0
186 184 -183 0
-187 160 -121 0
-187 -160 121 0
187 160 121 0
187 -160 -121 0
-188 6 0
-188 180 0
188 -6 -180 0
-189 187 0
-189 188 0
189 -187 -188 0
-190 -188 -187 0
-190 188 187 0
190 -188 187 0
190 188 -187 0
-191 158 -125 0
-191 -158 125 0
191 158 125 0
191 -158 -125 0
-192 7 0
-192 180 0
192 -7 -180 0
-193 191 0
-193 192 0
193 -191 -192 0
-194 -192 -191 0
-194 192 191 0
194 -192 191 0
194 192 -191 0
-195 156 -129 0
-195 -156 129 0
195 156 129 0
195 -156 -129 0
-196 8 0
-196 180 0
196 -8 -180 0
-197 195 0
-197 196 0
197 -195 -196 0
-198 -196 -195 0
-198 196 195 0
198 -196 195 0
198 196 -195 0
-199 154 -133 0
-199 -154 133 0
199 154 133 0
199 -154 -133 0
-200 9 0
-200 180 0
200 -9 -180 0
-201 199 0
-201 200 0
201 -199 -200 0
-202 -200 -199 0
-202 200 199 0
202 -200 199 0
202 200 -199 0
-203 152 -137 0
-203 -152 137 0
203 152 137 0
203 -152 -137 0
-204 10 0
-204 180 0
204 -10 -180 0
-205 203 0
-205 204 0
205 -203 -204 0
-206 -204 -203 0
-206 204 203 0
206 -204 203 0
206 204 -203 0
-207 150 -141 0
-207 -150 141 0
207 150 141 0
207 -150 -141 0
-208 11 0
-208 180 0
208 -11 -180 0
-209 207 0
-209 208 0
209 -207 -208 0
-210 -208 -207 0
-210 208 207 0
210 -208 207 0
210 208 -207 0
-211 -148 -145 0
-211 148 145 0
211 -148 145 0
211 148 -145 0
-212 36 0
-212 180 0
212 -36 -180 0
-213 211 0
-213 212 0
213 -211 -212 0
-214 210 0
-214 213 0
214 -210 -213 0
-215 -209 0
-215 -214 0
215 209 214 0
-216 206 0
-216 -215 0
216 -206 215 0
-217 -205 0
-217 -216 0
217 205 216 0
-218 202 0
-218 -217 0
218 -202 217 0
-219 -201 0
-219 -218 0
219 201 218 0
-220 198 0
-220 -219 0
220 -198 219 0
-221 -197 0
-221 -220 0
221 197 220 0
-222 194 0
-222 -221 0
222 -194 221 0
-223 -193 0
-223 -222 0
223 193 222 0
-224 190 0
-224 -223 0
224 -190 223 0
-225 -189 0
-225 -224 0
225 189 224 0
-226 186 0
-226 -225 0
226 -186 225 0
-227 -185 0
-227 -226 0
227 185 226 0
-228 227 -182 0
-228 -227 182 0
228 227 182 0
228 -227 -182 0
-229 19 0
-229 35 0
229 -19 -35 0
-230 20 0
-230 33 0
230 -20 -33 0
-231 229 0
-231 230 0
231 -229 -230 0
-232 -230 -229 0
-232 230 229 0
232 -230 229 0
232 230 -229 0
-233 -168 0
-233 -171 0
233 168 171 0
-234 232 0
-234 -233 0
234 -232 233 0
-235 233 -232 0
-235 -233 232 0
235 233 232 0
235 -233 -232 0
-236 21 0
-236 32 0
236 -21 -32 0
-237 235 0
-237 236 0
237 -235 -236 0
-238 -236 -235 0
-238 236 235 0
238 -236 235 0
238 236 -235 0
-239 -174 0
-239 -176 0
239 174 176 0
-240 238 0
-240 -239 0
240 -238 239 0
-241 239 -238 0
-241 -239 238 0
241 239 238 0
241 -239 -238 0
-242 22 0
-242 31 0
242 -22 -31 0
-243 241 0
-243 242 0
243 -241 -242 0
-244 -242 -241 0
-244 242 241 0
244 -242 241 0
244 242 -241 0
-245 179 0
-245 244 0
245 -179 -244 0
-246 -244 -179 0
-246 244 179 0
246 -244 179 0
246 244 -179 0
-247 30 0
-247 34 0
247 -30 -34 0
-248 246 0
-248 247 0
248 -246 -247 0
-249 -247 -246 0
-249 247 246 0
249 -247 246 0
249 247 -246 0
-250 5 0
-250 249 0
250 -5 -249 0
-251 -250 -228 0
-251 250 228 0
251 -250 228 0
251 250 -228 0
-252 225 -186 0
-252 -225 186 0
252 225 186 0
252 -225 -186 0
-253 6 0
-253 249 0
253 -6 -249 0
-254 252 0
-254 253 0
254 -252 -253 0
-255 -253 -252 0
-255 253 252 0
255 -253 252 0
255 253 -252 0
-256 223 -190 0
-256 -223 190 0
256 223 190 0
256 -223 -190 0
-257 7 0
-257 249 0
257 -7 -249 0
-258 256 0
-258 257 0
258 -256 -257 0
-259 -257 -256 0
-259 257 256 0
259 -257 256 0
259 257 -256 0
-260 221 -194 0
-260 -221 194 0
260 221 194 0
260 -221 -194 0
-261 8 0
-261 249 0
261 -8 -249 0
-262 260 0
-262 261 0
262 -260 -261 0
-263 -261 -260 0
-263 261 260 0
263 -261 260 0
263 261 -260 0
-264 219 -198 0
-264 -219 198 0
264 219 198 0
264 -219 -198 0
-265 9 0
-265 249 0
265 -9 -249 0
-266 264 0
-266 265 0
266 -264 -265 0
-267 -265 -264 0
-267 265 264 0
267 -265 264 0
267 265 -264 0
-268 217 -202 0
-268 -217 202 0
268 217 202 0
268 -217 -202 0
-269 10 0
-269 249 0
269 -10 -249 0
-270 268 0
-270 269 0
270 -268 -269 0
-271 -269 -268 0
-271 269 268 0
271 -269 268 0
271 269 -268 0
-272 215 -206 0
-272 -215 206 0
272 215 206 0
272 -215 -206 0
-273 11 0
-273 249 0
273 -11 -249 0
-274 272 0
-274 273 0
274 -272 -273 0
-275 -273 -272 0
-275 273 272 0
275 -273 272 0
275 273 -272 0
-276 -213 -210 0
-276 213 210 0
276 -213 210 0
276 213 -210 0
-277 36 0
-277 249 0
277 -36 -249 0
-278 276 0
-278 277 0
278 -276 -277 0
-279 275 0
-279 278 0
279 -275 -278 0
-280 -274 0
-280 -279 0
280 274 279 0
-281 271 0
-281 -280 0
281 -271 280 0
-282 -270 0
-282 -281 0
282 270 281 0
-283 267 0
-283 -282 0
283 -267 282 0
-284 -266 0
-284 -283 0
284 266 283 0
-285 263 0
-285 -284 0
285 -263 284 0
-286 -262 0
-286 -285 0
286 262 285 0
-287 259 0
-287 -286 0
287 -259 286 0
-288 -258 0
-288 -287 0
288 258 287 0
-289 255 0
-289 -288 0
289 -255 288 0
-290 -254 0
-290 -289 0
290 254 289 0
-291 290 -251 0
-291 -290 251 0
291 290 251 0
291 -290 -251 0
-292 18 0
-292 35 0
292 -18 -35 0
-293 19 0
-293 33 0
293 -19 -33 0
-294 292 0
-294 293 0
294 -292 -293 0
-295 -293 -292 0
-295 293 292 0
295 -293 292 0
295 293 -292 0
-296 -231 0
-296 -234 0
296 231 234 0
-297 295 0
-297 -296 0
297 -295 296 0
-298 296 -295 0
-298 -296 295 0
298 296 295 0
298 -296 -295 0
-299 20 0
-299 32 0
299 -20 -32 0
-300 298 0
-300 299 0
300 -298 -299 0
-301 -299 -298 0
-301 299 298 0
301 -299 298 0
301 299 -298 0
-302 -237 0
-302 -240 0
302 237 240 0
-303 301 0
-303 -302 0
303 -301 302 0
-304 302 -301 0
-304 -302 301 0
304 302 301 0
304 -302 -301 0
-305 21 0
-305 31 0
305 -21 -31 0
-306 304 0
-306 305 0
306 -304 -305 0
-307 -305 -304 0
-307 305 304 0
307 -305 304 0
307 305 -304 0
-308 -243 0
-308 -245 0
308 243 245 0
-309 307 0
-309 -308 0
309 -307 308 0
-310 308 -307 0
-310 -308 307 0
310 308 307 0
310 -308 -307 0
-311 22 0
-311 30 0
311 -22 -30 0
-312 310 0
-312 311 0
312 -310 -311 0
-313 -311 -310 0
-313 311 310 0
313 -311 310 0
313 311 -310 0
-314 248 0
-314 313 0
314 -248 -313 0
-315 -313 -248 0
-315 313 248 0
315 -313 248 0
315 313 -248 0
-316 29 0
-316 34 0
316 -29 -34 0
-317 315 0
-317 316 0
317 -315 -316 0
-318 -316 -315 0
-318 316 315 0
318 -316 315 0
318 316 -315 0
-319 6 0
-319 318 0
319 -6 -318 0
-320 -319 -291 0
-320 319 291 0
320 -319 291 0
320 319 -291 0
-321 288 -255 0
-321 -288 255 0
321 288 255 0
321 -288 -255 0
-322 7 0
-322 318 0
322 -7 -318 0
-323 321 0
-323 322 0
323 -321 -322 0
-324 -322 -321 0
-324 322 321 0
324 -322 321 0
324 322 -321 0
-325 286 -259 0
-325 -286 259 0
325 286 259 0
325 -286 -259 0
-326 8 0
-326 318 0
326 -8 -318 0
-327 325 0
-327 326 0
327 -325 -326 0
-328 -326 -325 0
-328 326 325 0
328 -326 325 0
328 326 -325 0
-329 284 -263 0
-329 -284 263 0
329 284 263 0
329 -284 -263 0
-330 9 0
-330 318 0
330 -9 -318 0
-331 329 0
-331 330 0
331 -329 -330 0
-332 -330 -329 0
-332 330 329 0
332 -330 329 0
332 330 -329 0
-333 282 -267 0
-333 -282 267 0
333 282 267 0
333 -282 -267 0
-334 10 0
-334 318 0
334 -10 -318 0
-335 333 0
-335 334 0
335 -333 -334 0
-336 -334 -333 0
-336 334 333 0
336 -334 333 0
336 334 -333 0
-337 280 -271 0
-337 -280 271 0
337 280 271 0
337 -280 -271 0
-338 11 0
-338 318 0
338 -11 -318 0
-339 337 0
-339 338 0
339 -337 -338 0
-340 -338 -337 0
-340 338 337 0
340 -338 337 0
340 338 -337 0
-341 -278 -275 0
-341 278 275 0
341 -278 275 0
341 278 -275 0
-342 36 0
-342 318 0
342 -36 -318 0
-343 341 0
-343 342 0
343 -341 -342 0
-344 340 0
-344 343 0
344 -340 -343 0
-345 -339 0
-345 -344 0
345 339 344 0
-346 336 0
-346 -345 0
346 -336 345 0
-347 -335 0
-347 -346 0
347 335 346 0
-348 332 0
-348 -347 0
348 -332 347 0
-349 -331 0
-349 -348 0
349 331 348 0
-350 328 0
-350 -349 0
350 -328 349 0
-351 -327 0
-351 -350 0
351 327 350 0
-352 324 0
-352 -351 0
352 -324 351 0
-353 -323 0
-353 -352 0
353 323 352 0
-354 353 -320 0
-354 -353 320 0
354 353 320 0
354 -353 -320 0
-355 17 0
-355 35 0
355 -17 -35 0
-356 18 0
-356 33 0
356 -18 -33 0
-357 355 0
-357 356 0
357 -355 -356 0
-358 -356 -355 0
-358 356 355 0
358 -356 355 0
358 356 -355 0
-359 -294 0
-359 -297 0
359 294 297 0
-360 358 0
-360 -359 0
360 -358 359 0
-361 359 -358 0
-361 -359 358 0
361 359 358 0
361 -359 -358 0
-362 19 0
-362 32 0
362 -19 -32 0
-363 361 0
-363 362 0
363 -361 -362 0
-364 -362 -361 0
-364 362 361 0
364 -362 361 0
364 362 -361 0
-365 -300 0
-365 -303 0
365 300 303 0
-366 364 0
-366 -365 0
366 -364 365 0
-367 365 -364 0
-367 -365 364 0
367 365 364 0
367 -365 -364 0
-368 20 0
-368 31 0
368 -20 -31 0
-369 367 0
-369 368 0
369 -367 -368 0
-370 -368 -367 0
-370 368 367 0
370 -368 367 0
370 368 -367 0
-371 -306 0
-371 -309 0
371 306 309 0
-372 370 0
-372 -371 0
372 -370 371 0
-373 371 -370 0
-373 -371 370 0
373 371 370 0
373 -371 -370 0
-374 21 0
-374 30 0
374 -21 -30 0
-375 373 0
-375 374 0
375 -373 -374 0
-376 -374 -373 0
-376 374 373 0
376 -374 373 0
376 374 -373 0
-377 -312 0
-377 -314 0
377 312 314 0
-378 376 0
-378 -377 0
378 -376 377 0
-379 377 -376 0
-379 -377 376 0
379 377 376 0
379 -377 -376 0
-380 22 0
-380 29 0
380 -22 -29 0
-381 379 0
-381 380 0
381 -379 -380 0
-382 -380 -379 0
-382 380 379 0
382 -380 379 0
382 380 -379 0
-383 317 0
-383 382 0
383 -317 -382 0
-384 -382 -317 0
-384 382 317 0
384 -382 317 0
384 382 -317 0
-385 28 0
-385 34 0
385 -28 -34 0
-386 384 0
-386 385 0
386 -384 -385 0
-387 -385 -384 0
-387 385 384 0
387 -385 384 0
387 385 -384 0
-388 7 0
-388 387 0
388 -7 -387 0
-389 -388 -354 0
-389 388 354 0
389 -388 354 0
389 388 -354 0
-390 351 -324 0
-390 -351 324 0
390 351 324 0
390 -351 -324 0
-391 8 0
-391 387 0
391 -8 -387 0
-392 390 0
-392 391 0
392 -390 -391 0
-393 -391 -390 0
-393 391 390 0
393 -391 390 0
393 391 -390 0
-394 349 -328 0
-394 -349 328 0
394 349 328 0
394 -349 -328 0
-395 9 0
-395 387 0
395 -9 -387 0
-396 394 0
-396 395 0
396 -394 -395 0
-397 -395 -394 0
-397 395 394 0
397 -395 394 0
397 395 -394 0
-398 347 -332 0
-398 -347 332 0
398 347 332 0
398 -347 -332 0
-399 10 0
-399 387 0
399 -10 -387 0
-400 398 0
-400 399 0
400 -398 -399 0
-401 -399 -398 0
-401 399 398 0
401 -399 398 0
401 399 -398 0
-402 345 -336 0
-402 -345 336 0
402 345 336 0
402 -345 -336 0
-403 11 0
-403 387 0
403 -11 -387 0
-404 402 0
-404 403 0
404 -402 -403 0
-405 -403 -402 0
-405 403 402 0
405 -403 402 0
405 403 -402 0
-406 -343 -340 0
-406 343 340 0
406 -343 340 0
406 343 -340 0
-407 36 0
-407 387 0
407 -36 -387 0
-408 406 0
-408 407 0
408 -406 -407 0
-409 405 0
-409 408 0
409 -405 -408 0
-410 -404 0
-410 -409 0
410 404 409 0
-411 401 0
-411 -410 0
411 -401 410 0
-412 -400 0
-412 -411 0
412 400 411 0
-413 397 0
-413 -412 0
413 -397 412 0
-414 -396 0
-414 -413 0
414 396 413 0
-415 393 0
-415 -414 0
415 -393 414 0
-416 -392 0
-416 -415 0
416 392 415 0
-417 416 -389 0
-417 -416 389 0
417 416 389 0
417 -416 -389 0
-418 16 0
-418 35 0
418 -16 -35 0
-419 17 0
-419 33 0
419 -17 -33 0
-420 418 0
-420 419 0
420 -418 -419 0
-421 -419 -418 0
-421 419 418 0
421 -419 418 0
421 419 -418 0
-422 -357 0
-422 -360 0
422 357 360 0
-423 421 0
-423 -422 0
423 -421 422 0
-424 422 -421 0
-424 -422 421 0
424 422 421 0
424 -422 -421 0
-425 18 0
-425 32 0
425 -18 -32 0
-426 424 0
-426 425 0
426 -424 -425 0
-427 -425 -424 0
-427 425 424 0
427 -425 424 0
427 425 -424 0
-428 -363 0
-428 -366 0
428 363 366 0
-429 427 0
-429 -428 0
429 -427 428 0
-430 428 -427 0
-430 -428 427 0
430 428 427 0
430 -428 -427 0
-431 19 0
-431 31 0
431 -19 -31 0
-432 430 0
-432 431 0
432 -430 -431 0
-433 -431 -430 0
-433 431 430 0
433 -431 430 0
433 431 -430 0
-434 -369 0
-434 -372 0
434 369 372 0
-435 433 0
-435 -434 0
435 -433 434 0
-436 434 -433 0
-436 -434 433 0
436 434 433 0
436 -434 -433 0
-437 20 0
-437 30 0
437 -20 -30 0
-438 436 0
-438 437 0
438 -436 -437 0
-439 -437 -436 0
-439 437 436 0
439 -437 436 0
439 437 -436 0
-440 -375 0
-440 -378 0
440 375 378 0
-441 439 0
-441 -440 0
441 -439 440 0
-442 440 -439 0
-442 -440 439 0
442 440 439 0
442 -440 -439 0
-443 21 0
-443 29 0
443 -21 -29 0
-444 442 0
-444 443 0
444 -442 -443 0
-445 -443 -442 0
-445 443 442 0
445 -443 442 0
445 443 -442 0
-446 -381 0
-446 -383 0
446 381 383 0
-447 445 0
-447 -446 0
447 -445 446 0
-448 446 -445 0
-448 -446 445 0
448 446 445 0
448 -446 -445 0
-449 22 0
-449 28 0
449 -22 -28 0
-450 448 0
-450 449 0
450 -448 -449 0
-451 -449 -448 0
-451 449 448 0
451 -449 448 0
451 449 -448 0
-452 386 0
-452 451 0
452 -386 -451 0
-453 -451 -386 0
-453 451 386 0
453 -451 386 0
453 451 -386 0
-454 27 0
-454 34 0
454 -27 -34 0
-455 453 0
-455 454 0
455 -453 -454 0
-456 -454 -453 0
-456 454 453 0
456 -454 453 0
456 454 -453 0
-457 8 0
-457 456 0
457 -8 -456 0
-458 -457 -417 0
-458 457 417 0
458 -457 417 0
458 457 -417 0
-459 414 -393 0
-459 -414 393 0
459 414 393 0
459 -414 -393 0
-460 9 0
-460 456 0
460 -9 -456 0
-461 459 0
-461 460 0
461 -459 -460 0
-462 -460 -459 0
-462 460 459 0
462 -460 459 0
462 460 -459 0
-463 412 -397 0
-463 -412 397 0
463 412 397 0
463 -412 -397 0
-464 10 0
-464 456 0
464 -10 -456 0
-465 463 0
-465 464 0
465 -463 -464 0
-466 -464 -463 0
-466 464 463 0
466 -464 463 0
466 464 -463 0
-467 410 -401 0
-467 -410 401 0
467 410 401 0
467 -410 -401 0
-468 11 0
-468 456 0
468 -11 -456 0
-469 467 0
-469 468 0
469 -467 -468 0
-470 -468 -467 0
-470 468 467 0
470 -468 467 0
470 468 -467 0
-471 -408 -405 0
-471 408 405 0
471 -408 405 0
471 408 -405 0
-472 36 0
-472 456 0
472 -36 -456 0
-473 471 0
-473 472 0
473 -471 -472 0
-474 470 0
-474 473 0
474 -470 -473 0
-475 -469 0
-475 -474 0
475 469 474 0
-476 466 0
-476 -475 0
476 -466 475 0
-477 -465 0
-477 -476 0
477 465 476 0
-478 462 0
-478 -477 0
478 -462 477 0
-479 -461 0
-479 -478 0
479 461 478 0
-480 479 -458 0
-480 -479 458 0
480 479 458 0
480 -479 -458 0
-481 15 0
-481 35 0
481 -15 -35 0
-482 16 0
-482 33 0
482 -16 -33 0
-483 481 0
-483 482 0
483 -481 -482 0
-484 -482 -481 0
-484 482 481 0
484 -482 481 0
484 482 -481 0
-485 -420 0
-485 -423 0
485 420 423 0
-486 484 0
-486 -485 0
486 -484 485 0
-487 485 -484 0
-487 -485 484 0
487 485 484 0
487 -485 -484 0
-488 17 0
-488 32 0
488 -17 -32 0
-489 487 0
-489 488 0
489 -487 -488 0
-490 -488 -487 0
-490 488 487 0
490 -488 487 0
490 488 -487 0
-491 -426 0
-491 -429 0
491 426 429 0
-492 490 0
-492 -491 0
492 -490 491 0
-493 491 -490 0
-493 -491 490 0
493 491 490 0
493 -491 -490 0
-494 18 0
-494 31 0
494 -18 -31 0
-495 493 0
-495 494 0
495 -493 -494 0
-496 -494 -493 0
-496 494 493 0
496 -494 493 0
496 494 -493 0
-497 -432 0
-497 -435 0
497 432 435 0
-498 496 0
-498 -497 0
498 -496 497 0
-499 497 -496 0
-499 -497 496 0
499 497 496 0
499 -497 -496 0
-500 19 0
-500 30 0
500 -19 -30 0
-501 499 0
-501 500 0
501 -499 -500 0
-502 -500 -499 0
-502 500 499 0
502 -500 499 0
502 500 -499 0
-503 -438 0
-503 -441 0
503 438 441 0
-504 502 0
-504 -503 0
504 -502 503 0
-505 503 -502 0
-505 -503 502 0
505 503 502 0
505 -503 -502 0
-506 20 0
-506 29 0
506 -20 -29 0
-507 505 0
-507 506 0
507 -505 -506 0
-508 -506 -505 0
-508 506 505 0
508 -506 505 0
508 506 -505 0
-509 -444 0
-509 -447 0
509 444 447 0
-510 508 0
-510 -509 0
510 -508 509 0
-511 509 -508 0
-511 -509 508 0
511 509 508 0
511 -509 -508 0
-512 21 0
-512 28 0
512 -21 -28 0
-513 511 0
-513 512 0
513 -511 -512 0
-514 -512 -511 0
-514 512 511 0
514 -512 511 0
514 512 -511 0
-515 -450 0
-515 -452 0
515 450 452 0
-516 514 0
-516 -515 0
516 -514 515 0
-517 515 -514 0
-517 -515 514 0
517 515 514 0
517 -515 -514 0
-518 22 0
-518 27 0
518 -22 -27 0
-519 517 0
-519 518 0
519 -517 -518 0
-520 -518 -517 0
-520 518 517 0
520 -518 517 0
520 518 -517 0
-521 455 0
-521 520 0
521 -455 -520 0
-522 -520 -455 0
-522 520 455 0
522 -520 455 0
522 520 -455 0
-523 26 0
-523 34 0
523 -26 -34 0
-524 522 0
-524 523 0
524 -522 -523 0
-525 -523 -522 0
-525 523 522 0
525 -523 522 0
525 523 -522 0
-526 9 0
-526 525 0
526 -9 -525 0
-527 -526 -480 0
-527 526 480 0
527 -526 480 0
527 526 -480 0
-528 477 -462 0
-528 -477 462 0
528 477 462 0
528 -477 -462 0
-529 10 0
-529 525 0
529 -10 -525 0
-530 528 0
-530 529 0
530 -528 -529 0
-531 -529 -528 0
-531 529 528 0
531 -529 528 0
531 529 -528 0
-532 475 -466 0
-532 -475 466 0
532 475 466 0
532 -475 -466 0
-533 11 0
-533 525 0
533 -11 -525 0
-534 532 0
-534 533 0
534 -532 -533 0
-535 -533 -532 0
-535 533 532 0
535 -533 532 0
535 533 -532 0
-536 -473 -470 0
-536 473 470 0
536 -473 470 0
536 473 -470 0
-537 36 0
-537 525 0
537 -36 -525 0
-538 536 0
-538 537 0
538 -536 -537 0
-539 535 0
-539 538 0
539 -535 -538 0
-540 -534 0
-540 -539 0
540 534 539 0
-541 531 0
-541 -540 0
541 -531 540 0
-542 -530 0
-542 -541 0
542 530 541 0
-543 542 -527 0
-543 -542 527 0
543 542 527 0
543 -542 -527 0
-544 14 0
-544 35 0
544 -14 -35 0
-545 15 0
-545 33 0
545 -15 -33 0
-546 544 0
-546 545 0
546 -544 -545 0
-547 -545 -544 0
-547 545 544 0
547 -545 544 0
547 545 -544 0
-548 -483 0
-548 -486 0
548 483 486 0
-549 547 0
-549 -548 0
549 -547 548 0
-550 548 -547 0
-550 -548 547 0
550 548 547 0
550 -548 -547 0
-551 16 0
-551 32 0
551 -16 -32 0
-552 550 0
-552 551 0
552 -550 -551 0
-553 -551 -550 0
-553 551 550 0
553 -551 550 0
553 551 -550 0
-554 -489 0
-554 -492 0
554 489 492 0
-555 553 0
-555 -554 0
555 -553 554 0
-556 554 -553 0
-556 -554 553 0
556 554 553 0
556 -554 -553 0
-557 17 0
-557 31 0
557 -17 -31 0
-558 556 0
-558 557 0
558 -556 -557 0
-559 -557 -556 0
-559 557 556 0
559 -557 556 0
559 557 -556 0
-560 -495 0
-560 -498 0
560 495 498 0
-561 559 0
-561 -560 0
561 -559 560 0
-562 560 -559 0
-562 -560 559 0
562 560 559 0
562 -560 -559 0
-563 18 0
-563 30 0
563 -18 -30 0
-564 562 0
-564 563 0
564 -562 -563 0
-565 -563 -562 0
-565 563 562 0
565 -563 562 0
565 563 -562 0
-566 -501 0
-566 -504 0
566 501 504 0
-567 565 0
-567 -566 0
567 -565 566 0
-568 566 -565 0
-568 -566 565 0
568 566 565 0
568 -566 -565 0
-569 19 0
-569 29 0
569 -19 -29 0
-570 568 0
-570 569 0
570 -568 -569 0
-571 -569 -568 0
-571 569 568 0
571 -569 568 0
571 569 -568 0
-572 -507 0
-572 -510 0
572 507 510 0
-573 571 0
-573 -572 0
573 -571 572 0
-574 572 -571 0
-574 -572 571 0
574 572 571 0
574 -572 -571 0
-575 20 0
-575 28 0
575 -20 -28 0
-576 574 0
-576 575 0
576 -574 -575 0
-577 -575 -574 0
-577 575 574 0
577 -575 574 0
577 575 -574 0
-578 -513 0
-578 -516 0
578 513 516 0
-579 577 0
-579 -578 0
579 -577 578 0
-580 578 -577 0
-580 -578 577 0
580 578 577 0
580 -578 -577 0
-581 21 0
-581 27 0
581 -21 -27 0
-582 580 0
-582 581 0
582 -580 -581 0
-583 -581 -580 0
-583 581 580 0
583 -581 580 0
583 581 -580 0
-584 -519 0
-584 -521 0
584 519 521 0
-585 583 0
-585 -584 0
585 -583 584 0
-586 584 -583 0
-586 -584 583 0
586 584 583 0
586 -584 -583 0
-587 22 0
-587 26 0
587 -22 -26 0
-588 586 0
-588 587 0
588 -586 -587 0
-589 -587 -586 0
-589 587 586 0
589 -587 586 0
589 587 -586 0
-590 524 0
-590 589 0
590 -524 -589 0
-591 -589 -524 0
-591 589 524 0
591 -589 524 0
591 589 -524 0
-592 25 0
-592 34 0
592 -25 -34 0
-593 591 0
-593 592 0
593 -591 -592 0
-594 -592 -591 0
-594 592 591 0
594 -592 591 0
594 592 -591 0
-595 10 0
-595 594 0
595 -10 -594 0
-596 -595 -543 0
-596 595 543 0
596 -595 543 0
596 595 -543 0
-597 540 -531 0
-597 -540 531 0
597 540 531 0
597 -540 -531 0
-598 11 0
-598 594 0
598 -11 -594 0
-599 597 0
-599 598 0
599 -597 -598 0
-600 -598 -597 0
-600 598 597 0
600 -598 597 0
600 598 -597 0
-601 -538 -535 0
-601 538 535 0
601 -538 535 0
601 538 -535 0
-602 36 0
-602 594 0
602 -36 -594 0
-603 601 0
-603 602 0
603 -601 -602 0
-604 600 0
-604 603 0
604 -600 -603 0
-605 -599 0
-605 -604 0
605 599 604 0
-606 605 -596 0
-606 -605 596 0
606 605 596 0
606 -605 -596 0
-607 13 0
-607 35 0
607 -13 -35 0
-608 14 0
-608 33 0
608 -14 -33 0
-609 607 0
-609 608 0
609 -607 -608 0
-610 -608 -607 0
-610 608 607 0
610 -608 607 0
610 608 -607 0
-611 -546 0
-611 -549 0
611 546 549 0
-612 610 0
-612 -611 0
612 -610 611 0
-613 611 -610 0
-613 -611 610 0
613 611 610 0
613 -611 -610 0
-614 15 0
-614 32 0
614 -15 -32 0
-615 613 0
-615 614 0
615 -613 -614 0
-616 -614 -613 0
-616 614 613 0
616 -614 613 0
616 614 -613 0
-617 -552 0
-617 -555 0
617 552 555 0
-618 616 0
-618 -617 0
618 -616 617 0
-619 617 -616 0
-619 -617 616 0
619 617 616 0
619 -617 -616 0
-620 16 0
-620 31 0
620 -16 -31 0
-621 619 0
-621 620 0
621 -619 -620 0
-622 -620 -619 0
-622 620 619 0
622 -620 619 0
622 620 -619 0
-623 -558 0
-623 -561 0
623 558 561 0
-624 622 0
-624 -623 0
624 -622 623 0
-625 623 -622 0
-625 -623 622 0
625 623 622 0
625 -623 -622 0
-626 17 0
-626 30 0
626 -17 -30 0
-627 625 0
-627 626 0
627 -625 -626 0
-628 -626 -625 0
-628 626 625 0
628 -626 625 0
628 626 -625 0
-629 -564 0
-629 -567 0
629 564 567 0
-630 628 0
-630 -629 0
630 -628 629 0
-631 629 -628 0
-631 -629 628 0
631 629 628 0
631 -629 -628 0
-632 18 0
-632 29 0
632 -18 -29 0
-633 631 0
-633 632 0
633 -631 -632 0
-634 -632 -631 0
-634 632 631 0
634 -632 631 0
634 632 -631 0
-635 -570 0
-635 -573 0
635 570 573 0
-636 634 0
-636 -635 0
636 -634 635 0
-637 635 -634 0
-637 -635 634 0
637 635 634 0
637 -635 -634 0
-638 19 0
-638 28 0
638 -19 -28 0
-639 637 0
-639 638 0
639 -637 -638 0
-640 -638 -637 0
-640 638 637 0
640 -638 637 0
640 638 -637 0
-641 -576 0
-641 -579 0
641 576 579 0
-642 640 0
-642 -641 0
642 -640 641 0
-643 641 -640 0
-643 -641 640 0
643 641 640 0
643 -641 -640 0
-644 20 0
-644 27 0
644 -20 -27 0
-645 643 0
-645 644 0
645 -643 -644 0
-646 -644 -643 0
-646 644 643 0
646 -644 643 0
646 644 -643 0
-647 -582 0
-647 -585 0
647 582 585 0
-648 646 0
-648 -647 0
648 -646 647 0
-649 647 -646 0
-649 -647 646 0
649 647 646 0
649 -647 -646 0
-650 21 0
-650 26 0
650 -21 -26 0
-651 649 0
-651 650 0
651 -649 -650 0
-652 -650 -649 0
-652 650 649 0
652 -650 649 0
652 650 -649 0
-653 -588 0
-653 -590 0
653 588 590 0
-654 652 0
-654 -653 0
654 -652 653 0
-655 653 -652 0
-655 -653 652 0
655 653 652 0
655 -653 -652 0
-656 22 0
-656 25 0
656 -22 -25 0
-657 655 0
-657 656 0
657 -655 -656 0
-658 -656 -655 0
-658 656 655 0
658 -656 655 0
658 656 -655 0
-659 593 0
-659 658 0
659 -593 -658 0
-660 -658 -593 0
-660 658 593 0
660 -658 593 0
660 658 -593 0
-661 24 0
-661 34 0
661 -24 -34 0
-662 660 0
-662 661 0
662 -660 -661 0
-663 -661 -660 0
-663 661 660 0
663 -661 660 0
663 661 -660 0
-664 11 0
-664 663 0
664 -11 -663 0
-665 -664 -606 0
-665 664 606 0
665 -664 606 0
665 664 -606 0
-666 -603 -600 0
-666 603 600 0
666 -603 600 0
666 603 -600 0
-667 36 0
-667 663 0
667 -36 -663 0
-668 666 0
-668 667 0
668 -666 -667 0
-669 -668 -665 0
-669 668 665 0
669 -668 665 0
669 668 -665 0
-670 12 0
-670 35 0
670 -12 -35 0
-671 13 0
-671 33 0
671 -13 -33 0
-672 -671 -670 0
-672 671 670 0
672 -671 670 0
672 671 -670 0
-673 -609 0
-673 -612 0
673 609 612 0
-674 673 -672 0
-674 -673 672 0
674 673 672 0
674 -673 -672 0
-675 14 0
-675 32 0
675 -14 -32 0
-676 -675 -674 0
-676 675 674 0
676 -675 674 0
676 675 -674 0
-677 -615 0
-677 -618 0
677 615 618 0
-678 677 -676 0
-678 -677 676 0
678 677 676 0
678 -677 -676 0
-679 15 0
-679 31 0
679 -15 -31 0
-680 -679 -678 0
-680 679 678 0
680 -679 678 0
680 679 -678 0
-681 -621 0
-681 -624 0
681 621 624 0
-682 681 -680 0
-682 -681 680 0
682 681 680 0
682 -681 -680 0
-683 16 0
-683 30 0
683 -16 -30 0
-684 -683 -682 0
-684 683 682 0
684 -683 682 0
684 683 -682 0
-685 -627 0
-685 -630 0
685 627 630 0
-686 685 -684 0
-686 -685 684 0
686 685 684 0
686 -685 -684 0
-687 17 0
-687 29 0
687 -17 -29 0
-688 -687 -686 0
-688 687 686 0
688 -687 686 0
688 687 -686 0
-689 -633 0
-689 -636 0
689 633 636 0
-690 689 -688 0
-690 -689 688 0
690 689 688 0
690 -689 -688 0
-691 18 0
-691 28 0
691 -18 -28 0
-692 -691 -690 0
-692 691 690 0
692 -691 690 0
692 691 -690 0
-693 -639 0
-693 -642 0
693 639 642 0
-694 693 -692 0
-694 -693 692 0
694 693 692 0
694 -693 -692 0
-695 19 0
-695 27 0
695 -19 -27 0
-696 -695 -694 0
-696 695 694 0
696 -695 694 0
696 695 -694 0
-697 -645 0
-697 -648 0
697 645 648 0
-698 697 -696 0
-698 -697 696 0
698 697 696 0
698 -697 -696 0
-699 20 0
-699 26 0
699 -20 -26 0
-700 -699 -698 0
-700 699 698 0
700 -699 698 0
700 699 -698 0
-701 -651 0
-701 -654 0
701 651 654 0
-702 701 -700 0
-702 -701 700 0
702 701 700 0
702 -701 -700 0
-703 21 0
-703 25 0
703 -21 -25 0
-704 -703 -702 0
-704 703 702 0
704 -703 702 0
704 703 -702 0
-705 -657 0
-705 -659 0
705 657 659 0
-706 705 -704 0
-706 -705 704 0
706 705 704 0
706 -705 -704 0
-707 22 0
-707 24 0
707 -22 -24 0
-708 -707 -706 0
-708 707 706 0
708 -707 706 0
708 707 -706 0
-709 -708 -662 0
-709 708 662 0
709 -708 662 0
709 708 -662 0
-710 23 0
-710 34 0
710 -23 -34 0
-711 -710 -709 0
-711 710 709 0
711 -710 709 0
711 710 -709 0
-712 36 0
-712 711 0
712 -36 -711 0
-713 -712 -669 0
-713 712 669 0
713 -712 669 0
713 712 -669 0
-714 1 0
-714 34 0
714 -1 -34 0
-715 2 0
-715 22 0
715 -2 -22 0
-716 -715 -714 0
-716 715 714 0
716 -715 714 0
716 715 -714 0
-717 2 0
-717 34 0
717 -2 -34 0
-718 3 0
-718 22 0
718 -3 -22 0
-719 717 0
-719 718 0
719 -717 -718 0
-720 -718 -717 0
-720 718 717 0
720 -718 717 0
720 718 -717 0
-721 3 0
-721 34 0
721 -3 -34 0
-722 4 0
-722 22 0
722 -4 -22 0
-723 721 0
-723 722 0
723 -721 -722 0
-724 -722 -721 0
-724 722 721 0
724 -722 721 0
724 722 -721 0
-725 4 0
-725 34 0
725 -4 -34 0
-726 5 0
-726 22 0
726 -5 -22 0
-727 725 0
-727 726 0
727 -725 -726 0
-728 -726 -725 0
-728 726 725 0
728 -726 725 0
728 726 -725 0
-729 5 0
-729 34 0
729 -5 -34 0
-730 6 0
-730 22 0
730 -6 -22 0
-731 729 0
-731 730 0
731 -729 -730 0
-732 -730 -729 0
-732 730 729 0
732 -730 729 0
732 730 -729 0
-733 6 0
-733 34 0
733 -6 -34 0
-734 7 0
-734 22 0
734 -7 -22 0
-735 733 0
-735 734 0
735 -733 -734 0
-736 -734 -733 0
-736 734 733 0
736 -734 733 0
736 734 -733 0
-737 7 0
-737 34 0
737 -7 -34 0
-738 8 0
-738 22 0
738 -8 -22 0
-739 737 0
-739 738 0
739 -737 -738 0
-740 -738 -737 0
-740 738 737 0
740 -738 737 0
740 738 -737 0
-741 8 0
-741 34 0
741 -8 -34 0
-742 9 0
-742 22 0
742 -9 -22 0
-743 741 0
-743 742 0
743 -741 -742 0
-744 -742 -741 0
-744 742 741 0
744 -742 741 0
744 742 -741 0
-745 9 0
-745 34 0
745 -9 -34 0
-746 10 0
-746 22 0
746 -10 -22 0
-747 745 0
-747 746 0
747 -745 -746 0
-748 -746 -745 0
-748 746 745 0
748 -746 745 0
748 746 -745 0
-749 10 0
-749 34 0
749 -10 -34 0
-750 11 0
-750 22 0
750 -11 -22 0
-751 749 0
-751 750 0
751 -749 -750 0
-752 -750 -749 0
-752 750 749 0
752 -750 749 0
752 750 -749 0
-753 11 0
-753 34 0
753 -11 -34 0
-754 22 0
-754 36 0
754 -22 -36 0
-755 753 0
-755 754 0
755 -753 -754 0
-756 752 0
-756 755 0
756 -752 -755 0
-757 -751 0
-757 -756 0
757 751 756 0
-758 748 0
-758 -757 0
758 -748 757 0
-759 -747 0
-759 -758 0
759 747 758 0
-760 744 0
-760 -759 0
760 -744 759 0
-761 -743 0
-761 -760 0
761 743 760 0
-762 740 0
-762 -761 0
762 -740 761 0
-763 -739 0
-763 -762 0
763 739 762 0
-764 736 0
-764 -763 0
764 -736 763 0
-765 -735 0
-765 -764 0
765 735 764 0
-766 732 0
-766 -765 0
766 -732 765 0
-767 -731 0
-767 -766 0
767 731 766 0
-768 728 0
-768 -767 0
768 -728 767 0
-769 -727 0
-769 -768 0
769 727 768 0
-770 724 0
-770 -769 0
770 -724 769 0
-771 -723 0
-771 -770 0
771 723 770 0
-772 720 0
-772 -771 0
772 -720 771 0
-773 -719 0
-773 -772 0
773 719 772 0
-774 773 -716 0
-774 -773 716 0
774 773 716 0
774 -773 -716 0
-775 3 0
-775 21 0
775 -3 -21 0
-776 -775 -774 0
-776 775 774 0
776 -775 774 0
776 775 -774 0
-777 771 -720 0
-777 -771 720 0
777 771 720 0
777 -771 -720 0
-778 4 0
-778 21 0
778 -4 -21 0
-779 777 0
-779 778 0
779 -777 -778 0
-780 -778 -777 0
-780 778 777 0
780 -778 777 0
780 778 -777 0
-781 769 -724 0
-781 -769 724 0
781 769 724 0
781 -769 -724 0
-782 5 0
-782 21 0
782 -5 -21 0
-783 781 0
-783 782 0
783 -781 -782 0
-784 -782 -781 0
-784 782 781 0
784 -782 781 0
784 782 -781 0
-785 767 -728 0
-785 -767 728 0
785 767 728 0
785 -767 -728 0
-786 6 0
-786 21 0
786 -6 -21 0
-787 785 0
-787 786 0
787 -785 -786 0
-788 -786 -785 0
-788 786 785 0
788 -786 785 0
788 786 -785 0
-789 765 -732 0
-789 -765 732 0
789 765 732 0
789 -765 -732 0
-790 7 0
-790 21 0
790 -7 -21 0
-791 789 0
-791 790 0
791 -789 -790 0
-792 -790 -789 0
-792 790 789 0
792 -790 789 0
792 790 -789 0
-793 763 -736 0
-793 -763 736 0
793 763 736 0
793 -763 -736 0
-794 8 0
-794 21 0
794 -8 -21 0
-795 793 0
-795 794 0
795 -793 -794 0
-796 -794 -793 0
-796 794 793 0
796 -794 793 0
796 794 -793 0
-797 761 -740 0
-797 -761 740 0
797 761 740 0
797 -761 -740 0
-798 9 0
-798 21 0
798 -9 -21 0
-799 797 0
-799 798 0
799 -797 -798 0
-800 -798 -797 0
-800 798 797 0
800 -798 797 0
800 798 -797 0
-801 759 -744 0
-801 -759 744 0
801 759 744 0
801 -759 -744 0
-802 10 0
-802 21 0
802 -10 -21 0
-803 801 0
-803 802 0
803 -801 -802 0
-804 -802 -801 0
-804 802 801 0
804 -802 801 0
804 802 -801 0
-805 757 -748 0
-805 -757 748 0
805 757 748 0
805 -757 -748 0
-806 11 0
-806 21 0
806 -11 -21 0
-807 805 0
-807 806 0
807 -805 -806 0
-808 -806 -805 0
-808 806 805 0
808 -806 805 0
808 806 -805 0
-809 -755 -752 0
-809 755 752 0
809 -755 752 0
809 755 -752 0
-810 21 0
-810 36 0
810 -21 -36 0
-811 809 0
-811 810 0
811 -809 -810 0
-812 808 0
-812 811 0
812 -808 -811 0
-813 -807 0
-813 -812 0
813 807 812 0
-814 804 0
-814 -813 0
814 -804 813 0
-815 -803 0
-815 -814 0
815 803 814 0
-816 800 0
-816 -815 0
816 -800 815 0
-817 -799 0
-817 -816 0
817 799 816 0
-818 796 0
-818 -817 0
818 -796 817 0
-819 -795 0
-819 -818 0
819 795 818 0
-820 792 0
-820 -819 0
820 -792 819 0
-821 -791 0
-821 -820 0
821 791 820 0
-822 788 0
-822 -821 0
822 -788 821 0
-823 -787 0
-823 -822 0
823 787 822 0
-824 784 0
-824 -823 0
824 -784 823 0
-825 -783 0
-825 -824 0
825 783 824 0
-826 780 0
-826 -825 0
826 -780 825 0
-827 -779 0
-827 -826 0
827 779 826 0
-828 827 -776 0
-828 -827 776 0
828 827 776 0
828 -827 -776 0
-829 4 0
-829 20 0
829 -4 -20 0
-830 -829 -828 0
-830 829 828 0
830 -829 828 0
830 829 -828 0
-831 825 -780 0
-831 -825 780 0
831 825 780 0
831 -825 -780 0
-832 5 0
-832 20 0
832 -5 -20 0
-833 831 0
-833 832 0
833 -831 -832 0
-834 -832 -831 0
-834 832 831 0
834 -832 831 0
834 832 -831 0
-835 823 -784 0
-835 -823 784 0
835 823 784 0
835 -823 -784 0
-836 6 0
-836 20 0
836 -6 -20 0
-837 835 0
-837 836 0
837 -835 -836 0
-838 -836 -835 0
-838 836 835 0
838 -836 835 0
838 836 -835 0
-839 821 -788 0
-839 -821 788 0
839 821 788 0
839 -821 -788 0
-840 7 0
-840 20 0
840 -7 -20 0
-841 839 0
-841 840 0
841 -839 -840 0
-842 -840 -839 0
-842 840 839 0
842 -840 839 0
842 840 -839 0
-843 819 -792 0
-843 -819 792 0
843 819 792 0
843 -819 -792 0
-844 8 0
-844 20 0
844 -8 -20 0
-845 843 0
-845 844 0
845 -843 -844 0
-846 -844 -843 0
-846 844 843 0
846 -844 843 0
846 844 -843 0
-847 817 -796 0
-847 -817 796 0
847 817 796 0
847 -817 -796 0
-848 9 0
-848 20 0
848 -9 -20 0
-849 847 0
-849 848 0
849 -847 -848 0
-850 -848 -847 0
-850 848 847 0
850 -848 847 0
850 848 -847 0
-851 815 -800 0
-851 -815 800 0
851 815 800 0
851 -815 -800 0
-852 10 0
-852 20 0
852 -10 -20 0
-853 851 0
-853 852 0
853 -851 -852 0
-854 -852 -851 0
-854 852 851 0
854 -852 851 0
854 852 -851 0
-855 813 -804 0
-855 -813 804 0
855 813 804 0
855 -813 -804 0
-856 11 0
-856 20 0
856 -11 -20 0
-857 855 0
-857 856 0
857 -855 -856 0
-858 -856 -855 0
-858 856 855 0
858 -856 855 0
858 856 -855 0
-859 -811 -808 0
-859 811 808 0
859 -811 808 0
859 811 -808 0
-860 20 0
-860 36 0
860 -20 -36 0
-861 859 0
-861 860 0
861 -859 -860 0
-862 858 0
-862 861 0
862 -858 -861 0
-863 -857 0
-863 -862 0
863 857 862 0
-864 854 0
-864 -863 0
864 -854 863 0
-865 -853 0
-865 -864 0
865 853 864 0
-866 850 0
-866 -865 0
866 -850 865 0
-867 -849 0
-867 -866 0
867 849 866 0
-868 846 0
-868 -867 0
868 -846 867 0
-869 -845 0
-869 -868 0
869 845 868 0
-870 842 0
-870 -869 0
870 -842 869 0
-871 -841 0
-871 -870 0
871 841 870 0
-872 838 0
-872 -871 0
872 -838 871 0
-873 -837 0
-873 -872 0
873 837 872 0
-874 834 0
-874 -873 0
874 -834 873 0
-875 -833 0
-875 -874 0
875 833 874 0
-876 875 -830 0
-876 -875 830 0
876 875 830 0
876 -875 -830 0
-877 5 0
-877 19 0
877 -5 -19 0
-878 -877 -876 0
-878 877 876 0
878 -877 876 0
878 877 -876 0
-879 873 -834 0
-879 -873 834 0
879 873 834 0
879 -873 -834 0
-880 6 0
-880 19 0
880 -6 -19 0
-881 879 0
-881 880 0
881 -879 -880 0
-882 -880 -879 0
-882 880 879 0
882 -880 879 0
882 880 -879 0
-883 871 -838 0
-883 -871 838 0
883 871 838 0
883 -871 -838 0
-884 7 0
-884 19 0
884 -7 -19 0
-885 883 0
-885 884 0
885 -883 -884 0
-886 -884 -883 0
-886 884 883 0
886 -884 883 0
886 884 -883 0
-887 869 -842 0
-887 -869 842 0
887 869 842 0
887 -869 -842 0
-888 8 0
-888 19 0
888 -8 -19 0
-889 887 0
-889 888 0
889 -887 -888 0
-890 -888 -887 0
-890 888 887 0
890 -888 887 0
890 888 -887 0
-891 867 -846 0
-891 -867 846 0
891 867 846 0
891 -867 -846 0
-892 9 0
-892 19 0
892 -9 -19 0
-893 891 0
-893 892 0
893 -891 -892 0
-894 -892 -891 0
-894 892 891 0
894 -892 891 0
894 892 -891 0
-895 865 -850 0
-895 -865 850 0
895 865 850 0
895 -865 -850 0
-896 10 0
-896 19 0
896 -10 -19 0
-897 895 0
-897 896 0
897 -895 -896 0
-898 -896 -895 0
-898 896 895 0
898 -896 895 0
898 896 -895 0
-899 863 -854 0
-899 -863 854 0
899 863 854 0
899 -863 -854 0
-900 11 0
-900 19 0
900 -11 -19 0
-901 899 0
-901 900 0
901 -899 -900 0
-902 -900 -899 0
-902 900 899 0
902 -900 899 0
902 900 -899 0
-903 -861 -858 0
-903 861 858 0
903 -861 858 0
903 861 -858 0
-904 19 0
-904 36 0
904 -19 -36 0
-905 903 0
-905 904 0
905 -903 -904 0
-906 902 0
-906 905 0
906 -902 -905 0
-907 -901 0
-907 -906 0
907 901 906 0
-908 898 0
-908 -907 0
908 -898 907 0
-909 -897 0
-909 -908 0
909 897 908 0
-910 894 0
-910 -909 0
910 -894 909 0
-911 -893 0
-911 -910 0
911 893 910 0
-912 890 0
-912 -911 0
912 -890 911 0
-913 -889 0
-913 -912 0
913 889 912 0
-914 886 0
-914 -913 0
914 -886 913 0
-915 -885 0
-915 -914 0
915 885 914 0
-916 882 0
-916 -915 0
916 -882 915 0
-917 -881 0
-917 -916 0
917 881 916 0
-918 917 -878 0
-918 -917 878 0
918 917 878 0
918 -917 -878 0
-919 6 0
-919 18 0
919 -6 -18 0
-920 -919 -918 0
-920 919 918 0
920 -919 918 0
920 919 -918 0
-921 915 -882 0
-921 -915 882 0
921 915 882 0
921 -915 -882 0
-922 7 0
-922 18 0
922 -7 -18 0
-923 921 0
-923 922 0
923 -921 -922 0
-924 -922 -921 0
-924 922 921 0
924 -922 921 0
924 922 -921 0
-925 913 -886 0
-925 -913 886 0
925 913 886 0
925 -913 -886 0
-926 8 0
-926 18 0
926 -8 -18 0
-927 925 0
-927 926 0
927 -925 -926 0
-928 -926 -925 0
-928 926 925 0
928 -926 925 0
928 926 -925 0
-929 911 -890 0
-929 -911 890 0
929 911 890 0
929 -911 -890 0
-930 9 0
-930 18 0
930 -9 -18 0
-931 929 0
-931 930 0
931 -929 -930 0
-932 -930 -929 0
-932 930 929 0
932 -930 929 0
932 930 -929 0
-933 909 -894 0
-933 -909 894 0
933 909 894 0
933 -909 -894 0
-934 10 0
-934 18 0
934 -10 -18 0
-935 933 0
-935 934 0
935 -933 -934 0
-936 -934 -933 0
-936 934 933 0
936 -934 933 0
936 934 -933 0
-937 907 -898 0
-937 -907 898 0
937 907 898 0
937 -907 -898 0
-938 11 0
-938 18 0
938 -11 -18 0
-939 937 0
-939 938 0
939 -937 -938 0
-940 -938 -937 0
-940 938 937 0
940 -938 937 0
940 938 -937 0
-941 -905 -902 0
-941 905 902 0
941 -905 902 0
941 905 -902 0
-942 18 0
-942 36 0
942 -18 -36 0
-943 941 0
-943 942 0
943 -941 -942 0
-944 940 0
-944 943 0
944 -940 -943 0
-945 -939 0
-945 -944 0
945 939 944 0
-946 936 0
-946 -945 0
946 -936 945 0
-947 -935 0
-947 -946 0
947 935 946 0
-948 932 0
-948 -947 0
948 -932 947 0
-949 -931 0
-949 -948 0
949 931 948 0
-950 928 0
-950 -949 0
950 -928 949 0
-951 -927 0
-951 -950 0
951 927 950 0
-952 924 0
-952 -951 0
952 -924 951 0
-953 -923 0
-953 -952 0
953 923 952 0
-954 953 -920 0
-954 -953 920 0
954 953 920 0
954 -953 -920 0
-955 7 0
-955 17 0
955 -7 -17 0
-956 -955 -954 0
-956 955 954 0
956 -955 954 0
956 955 -954 0
-957 951 -924 0
-957 -951 924 0
957 951 924 0
957 -951 -924 0
-958 8 0
-958 17 0
958 -8 -17 0
-959 957 0
-959 958 0
959 -957 -958 0
-960 -958 -957 0
-960 958 957 0
960 -958 957 0
960 958 -957 0
-961 949 -928 0
-961 -949 928 0
961 949 928 0
961 -949 -928 0
-962 9 0
-962 17 0
962 -9 -17 0
-963 961 0
-963 962 0
963 -961 -962 0
-964 -962 -961 0
-964 962 961 0
964 -962 961 0
964 962 -961 0
-965 947 -932 0
-965 -947 932 0
965 947 932 0
965 -947 -932 0
-966 10 0
-966 17 0
966 -10 -17 0
-967 965 0
-967 966 0
967 -965 -966 0
-968 -966 -965 0
-968 966 965 0
968 -966 965 0
968 966 -965 0
-969 945 -936 0
-969 -945 936 0
969 945 936 0
969 -945 -936 0
-970 11 0
-970 17 0
970 -11 -17 0
-971 969 0
-971 970 0
971 -969 -970 0
-972 -970 -969 0
-972 970 969 0
972 -970 969 0
972 970 -969 0
-973 -943 -940 0
-973 943 940 0
973 -943 940 0
973 943 -940 0
-974 17 0
-974 36 0
974 -17 -36 0
-975 973 0
-975 974 0
975 -973 -974 0
-976 972 0
-976 975 0
976 -972 -975 0
-977 -971 0
-977 -976 0
977 971 976 0
-978 968 0
-978 -977 0
978 -968 977 0
-979 -967 0
-979 -978 0
979 967 978 0
-980 964 0
-980 -979 0
980 -964 979 0
-981 -963 0
-981 -980 0
981 963 980 0
-982 960 0
-982 -981 0
982 -960 981 0
-983 -959 0
-983 -982 0
983 959 982 0
-984 983 -956 0
-984 -983 956 0
984 983 956 0
984 -983 -956 0
-985 8 0
-985 16 0
985 -8 -16 0
-986 -985 -984 0
-986 985 984 0
986 -985 984 0
986 985 -984 0
-987 981 -960 0
-987 -981 960 0
987 981 960 0
987 -981 -960 0
-988 9 0
-988 16 0
988 -9 -16 0
-989 987 0
-989 988 0
989 -987 -988 0
-990 -988 -987 0
-990 988 987 0
990 -988 987 0
990 988 -987 0
-991 979 -964 0
-991 -979 964 0
991 979 964 0
991 -979 -964 0
-992 10 0
-992 16 0
992 -10 -16 0
-993 991 0
-993 992 0
993 -991 -992 0
-994 -992 -991 0
-994 992 991 0
994 -992 991 0
994 992 -991 0
-995 977 -968 0
-995 -977 968 0
995 977 968 0
995 -977 -968 0
-996 11 0
-996 16 0
996 -11 -16 0
-997 995 0
-997 996 0
997 -995 -996 0
-998 -996 -995 0
-998 996 995 0
998 -996 995 0
998 996 -995 0
-999 -975 -972 0
-999 975 972 0
999 -975 972 0
999 975 -972 0
-1000 16 0
-1000 36 0
1000 -16 -36 0
-1001 999 0
-1001 1000 0
1001 -999 -1000 0
-1002 998 0
-1002 1001 0
1002 -998 -1001 0
-1003 -997 0
-1003 -1002 0
1003 997 1002 0
-1004 994 0
-1004 -1003 0
1004 -994 1003 0
-1005 -993 0
-1005 -1004 0
1005 993 1004 0
-1006 990 0
-1006 -1005 0
1006 -990 1005 0
-1007 -989 0
-1007 -1006 0
1007 989 1006 0
-1008 1007 -986 0
-1008 -1007 986 0
1008 1007 986 0
1008 -1007 -986 0
-1009 9 0
-1009 15 0
1009 -9 -15 0
-1010 -1009 -1008 0
-1010 1009 1008 0
1010 -1009 1008 0
1010 1009 -1008 0
-1011 1005 -990 0
-1011 -1005 990 0
1011 1005 990 0
1011 -1005 -990 0
-1012 10 0
-1012 15 0
1012 -10 -15 0
-1013 1011 0
-1013 1012 0
1013 -1011 -1012 0
-1014 -1012 -1011 0
-1014 1012 1011 0
1014 -1012 1011 0
1014 1012 -1011 0
-1015 1003 -994 0
-1015 -1003 994 0
1015 1003 994 0
1015 -1003 -994 0
-1016 11 0
-1016 15 0
1016 -11 -15 0
-1017 1015 0
-1017 1016 0
1017 -1015 -1016 0
-1018 -1016 -1015 0
-1018 1016 1015 0
1018 -1016 1015 0
1018 1016 -1015 0
-1019 -1001 -998 0
-1019 1001 998 0
1019 -1001 998 0
1019 1001 -998 0
-1020 15 0
-1020 36 0
1020 -15 -36 0
-1021 1019 0
-1021 1020 0
1021 -1019 -1020 0
-1022 1018 0
-1022 1021 0
1022 -1018 -1021 0
-1023 -1017 0
-1023 -1022 0
1023 1017 1022 0
-1024 1014 0
-1024 -1023 0
1024 -1014 1023 0
-1025 -1013 0
-1025 -1024 0
1025 1013 1024 0
-1026 1025 -1010 0
-1026 -1025 1010 0
1026 1025 1010 0
1026 -1025 -1010 0
-1027 10 0
-1027 14 0
1027 -10 -14 0
-1028 -1027 -1026 0
-1028 1027 1026 0
1028 -1027 1026 0
1028 1027 -1026 0
-1029 1023 -1014 0
-1029 -1023 1014 0
1029 1023 1014 0
1029 -1023 -1014 0
-1030 11 0
-1030 14 0
1030 -11 -14 0
-1031 1029 0
-1031 1030 0
1031 -1029 -1030 0
-1032 -1030 -1029 0
-1032 1030 1029 0
1032 -1030 1029 0
1032 1030 -1029 0
-1033 -1021 -1018 0
-1033 1021 1018 0
1033 -1021 1018 0
1033 1021 -1018 0
-1034 14 0
-1034 36 0
1034 -14 -36 0
-1035 1033 0
-1035 1034 0
1035 -1033 -1034 0
-1036 1032 0
-1036 1035 0
1036 -1032 -1035 0
-1037 -1031 0
-1037 -1036 0
1037 1031 1036 0
-1038 1037 -1028 0
-1038 -1037 1028 0
1038 1037 1028 0
1038 -1037 -1028 0
-1039 11 0
-1039 13 0
1039 -11 -13 0
-1040 -1039 -1038 0
-1040 1039 1038 0
1040 -1039 1038 0
1040 1039 -1038 0
-1041 -1035 -1032 0
-1041 1035 1032 0
1041 -1035 1032 0
1041 1035 -1032 0
-1042 13 0
-1042 36 0
1042 -13 -36 0
-1043 1041 0
-1043 1042 0
1043 -1041 -1042 0
-1044 -1043 -1040 0
-1044 1043 1040 0
1044 -1043 1040 0
1044 1043 -1040 0
-1045 12 0
-1045 36 0
1045 -12 -36 0
-1046 -1045 -1044 0
-1046 1045 1044 0
1046 -1045 1044 0
1046 1045 -1044 0
-1047 35 0
-1047 1046 0
1047 -35 -1046 0
-1048 -1042 -1041 0
-1048 1042 1041 0
1048 -1042 1041 0
1048 1042 -1041 0
-1049 33 0
-1049 1048 0
1049 -33 -1048 0
-1050 -1049 -1047 0
-1050 1049 1047 0
1050 -1049 1047 0
1050 1049 -1047 0
-1051 35 0
-1051 1048 0
1051 -35 -1048 0
-1052 -1034 -1033 0
-1052 1034 1033 0
1052 -1034 1033 0
1052 1034 -1033 0
-1053 33 0
-1053 1052 0
1053 -33 -1052 0
-1054 1051 0
-1054 1053 0
1054 -1051 -1053 0
-1055 -1053 -1051 0
-1055 1053 1051 0
1055 -1053 1051 0
1055 1053 -1051 0
-1056 35 0
-1056 1052 0
1056 -35 -1052 0
-1057 -1020 -1019 0
-1057 1020 1019 0
1057 -1020 1019 0
1057 1020 -1019 0
-1058 33 0
-1058 1057 0
1058 -33 -1057 0
-1059 1056 0
-1059 1058 0
1059 -1056 -1058 0
-1060 -1058 -1056 0
-1060 1058 1056 0
1060 -1058 1056 0
1060 1058 -1056 0
-1061 35 0
-1061 1057 0
1061 -35 -1057 0
-1062 -1000 -999 0
-1062 1000 999 0
1062 -1000 999 0
1062 1000 -999 0
-1063 33 0
-1063 1062 0
1063 -33 -1062 0
-1064 1061 0
-1064 1063 0
1064 -1061 -1063 0
-1065 -1063 -1061 0
-1065 1063 1061 0
1065 -1063 1061 0
1065 1063 -1061 0
-1066 35 0
-1066 1062 0
1066 -35 -1062 0
-1067 -974 -973 0
-1067 974 973 0
1067 -974 973 0
1067 974 -973 0
-1068 33 0
-1068 1067 0
1068 -33 -1067 0
-1069 1066 0
-1069 1068 0
1069 -1066 -1068 0
-1070 -1068 -1066 0
-1070 1068 1066 0
1070 -1068 1066 0
1070 1068 -1066 0
-1071 35 0
-1071 1067 0
1071 -35 -1067 0
-1072 -942 -941 0
-1072 942 941 0
1072 -942 941 0
1072 942 -941 0
-1073 33 0
-1073 1072 0
1073 -33 -1072 0
-1074 1071 0
-1074 1073 0
1074 -1071 -1073 0
-1075 -1073 -1071 0
-1075 1073 1071 0
1075 -1073 1071 0
1075 1073 -1071 0
-1076 35 0
-1076 1072 0
1076 -35 -1072 0
-1077 -904 -903 0
-1077 904 903 0
1077 -904 903 0
1077 904 -903 0
-1078 33 0
-1078 1077 0
1078 -33 -1077 0
-1079 1076 0
-1079 1078 0
1079 -1076 -1078 0
-1080 -1078 -1076 0
-1080 1078 1076 0
1080 -1078 1076 0
1080 1078 -1076 0
-1081 35 0
-1081 1077 0
1081 -35 -1077 0
-1082 -860 -859 0
-1082 860 859 0
1082 -860 859 0
1082 860 -859 0
-1083 33 0
-1083 1082 0
1083 -33 -1082 0
-1084 1081 0
-1084 1083 0
1084 -1081 -1083 0
-1085 -1083 -1081 0
-1085 1083 1081 0
1085 -1083 1081 0
1085 1083 -1081 0
-1086 35 0
-1086 1082 0
1086 -35 -1082 0
-1087 -810 -809 0
-1087 810 809 0
1087 -810 809 0
1087 810 -809 0
-1088 33 0
-1088 1087 0
1088 -33 -1087 0
-1089 1086 0
-1089 1088 0
1089 -1086 -1088 0
-1090 -1088 -1086 0
-1090 1088 1086 0
1090 -1088 1086 0
1090 1088 -1086 0
-1091 35 0
-1091 1087 0
1091 -35 -1087 0
-1092 -754 -753 0
-1092 754 753 0
1092 -754 753 0
1092 754 -753 0
-1093 33 0
-1093 1092 0
1093 -33 -1092 0
-1094 1091 0
-1094 1093 0
1094 -1091 -1093 0
-1095 -1093 -1091 0
-1095 1093 1091 0
1095 -1093 1091 0
1095 1093 -1091 0
-1096 35 0
-1096 1092 0
1096 -35 -1092 0
-1097 34 0
-1097 36 0
1097 -34 -36 0
-1098 33 0
-1098 1097 0
1098 -33 -1097 0
-1099 1096 0
-1099 1098 0
1099 -1096 -1098 0
-1100 1095 0
-1100 1099 0
1100 -1095 -1099 0
-1101 -1094 0
-1101 -1100 0
1101 1094 1100 0
-1102 1090 0
-1102 -1101 0
1102 -1090 1101 0
-1103 -1089 0
-1103 -1102 0
1103 1089 1102 0
-1104 1085 0
-1104 -1103 0
1104 -1085 1103 0
-1105 -1084 0
-1105 -1104 0
1105 1084 1104 0
-1106 1080 0
-1106 -1105 0
1106 -1080 1105 0
-1107 -1079 0
-1107 -1106 0
1107 1079 1106 0
-1108 1075 0
-1108 -1107 0
1108 -1075 1107 0
-1109 -1074 0
-1109 -1108 0
1109 1074 1108 0
-1110 1070 0
-1110 -1109 0
1110 -1070 1109 0
-1111 -1069 0
-1111 -1110 0
1111 1069 1110 0
-1112 1065 0
-1112 -1111 0
1112 -1065 1111 0
-1113 -1064 0
-1113 -1112 0
1113 1064 1112 0
-1114 1060 0
-1114 -1113 0
1114 -1060 1113 0
-1115 -1059 0
-1115 -1114 0
1115 1059 1114 0
-1116 1055 0
-1116 -1115 0
1116 -1055 1115 0
-1117 -1054 0
-1117 -1116 0
1117 1054 1116 0
-1118 1117 -1050 0
-1118 -1117 1050 0
1118 1117 1050 0
1118 -1117 -1050 0
-1119 32 0
-1119 1052 0
1119 -32 -1052 0
-1120 -1119 -1118 0
-1120 1119 1118 0
1120 -1119 1118 0
1120 1119 -1118 0
-1121 1115 -1055 0
-1121 -1115 1055 0
1121 1115 1055 0
1121 -1115 -1055 0
-1122 32 0
-1122 1057 0
1122 -32 -1057 0
-1123 1121 0
-1123 1122 0
1123 -1121 -1122 0
-1124 -1122 -1121 0
-1124 1122 1121 0
1124 -1122 1121 0
1124 1122 -1121 0
-1125 1113 -1060 0
-1125 -1113 1060 0
1125 1113 1060 0
1125 -1113 -1060 0
-1126 32 0
-1126 1062 0
1126 -32 -1062 0
-1127 1125 0
-1127 1126 0
1127 -1125 -1126 0
-1128 -1126 -1125 0
-1128 1126 1125 0
1128 -1126 1125 0
1128 1126 -1125 0
-1129 1111 -1065 0
-1129 -1111 1065 0
1129 1111 1065 0
1129 -1111 -1065 0
-1130 32 0
-1130 1067 0
1130 -32 -1067 0
-1131 1129 0
-1131 1130 0
1131 -1129 -1130 0
-1132 -1130 -1129 0
-1132 1130 1129 0
1132 -1130 1129 0
1132 1130 -1129 0
-1133 1109 -1070 0
-1133 -1109 1070 0
1133 1109 1070 0
1133 -1109 -1070 0
-1134 32 0
-1134 1072 0
1134 -32 -1072 0
-1135 1133 0
-1135 1134 0
1135 -1133 -1134 0
-1136 -1134 -1133 0
-1136 1134 1133 0
1136 -1134 1133 0
1136 1134 -1133 0
-1137 1107 -1075 0
-1137 -1107 1075 0
1137 1107 1075 0
1137 -1107 -1075 0
-1138 32 0
-1138 1077 0
1138 -32 -1077 0
-1139 1137 0
-1139 1138 0
1139 -1137 -1138 0
-1140 -1138 -1137 0
-1140 1138 1137 0
1140 -1138 1137 0
1140 1138 -1137 0
-1141 1105 -1080 0
-1141 -1105 1080 0
1141 1105 1080 0
1141 -1105 -1080 0
-1142 32 0
-1142 1082 0
1142 -32 -1082 0
-1143 1141 0
-1143 1142 0
1143 -1141 -1142 0
-1144 -1142 -1141 0
-1144 1142 1141 0
1144 -1142 1141 0
1144 1142 -1141 0
-1145 1103 -1085 0
-1145 -1103 1085 0
1145 1103 1085 0
1145 -1103 -1085 0
-1146 32 0
-1146 1087 0
1146 -32 -1087 0
-1147 1145 0
-1147 1146 0
1147 -1145 -1146 0
-1148 -1146 -1145 0
-1148 1146 1145 0
1148 -1146 1145 0
1148 1146 -1145 0
-1149 1101 -1090 0
-1149 -1101 1090 0
1149 1101 1090 0
1149 -1101 -1090 0
-1150 32 0
-1150 1092 0
1150 -32 -1092 0
-1151 1149 0
-1151 1150 0
1151 -1149 -1150 0
-1152 -1150 -1149 0
-1152 1150 1149 0
1152 -1150 1149 0
1152 1150 -1149 0
-1153 -1099 -1095 0
-1153 1099 1095 0
1153 -1099 1095 0
1153 1099 -1095 0
-1154 32 0
-1154 1097 0
1154 -32 -1097 0
-1155 1153 0
-1155 1154 0
1155 -1153 -1154 0
-1156 1152 0
-1156 1155 0
1156 -1152 -1155 0
-1157 -1151 0
-1157 -1156 0
1157 1151 1156 0
-1158 1148 0
-1158 -1157 0
1158 -1148 1157 0
-1159 -1147 0
-1159 -1158 0
1159 1147 1158 0
-1160 1144 0
-1160 -1159 0
1160 -1144 1159 0
-1161 -1143 0
-1161 -1160 0
1161 1143 1160 0
-1162 1140 0
-1162 -1161 0
1162 -1140 1161 0
-1163 -1139 0
-1163 -1162 0
1163 1139 1162 0
-1164 1136 0
-1164 -1163 0
1164 -1136 1163 0
-1165 -1135 0
-1165 -1164 0
1165 1135 1164 0
-1166 1132 0
-1166 -1165 0
1166 -1132 1165 0
-1167 -1131 0
-1167 -1166 0
1167 1131 1166 0
-1168 1128 0
-1168 -1167 0
1168 -1128 1167 0
-1169 -1127 0
-1169 -1168 0
1169 1127 1168 0
-1170 1124 0
-1170 -1169 0
1170 -1124 1169 0
-1171 -1123 0
-1171 -1170 0
1171 1123 1170 0
-1172 1171 -1120 0
-1172 -1171 1120 0
1172 1171 1120 0
1172 -1171 -1120 0
-1173 31 0
-1173 1057 0
1173 -31 -1057 0
-1174 -1173 -1172 0
-1174 1173 1172 0
1174 -1173 1172 0
1174 1173 -1172 0
-1175 1169 -1124 0
-1175 -1169 1124 0
1175 1169 1124 0
1175 -1169 -1124 0
-1176 31 0
-1176 1062 0
1176 -31 -1062 0
-1177 1175 0
-1177 1176 0
1177 -1175 -1176 0
-1178 -1176 -1175 0
-1178 1176 1175 0
1178 -1176 1175 0
1178 1176 -1175 0
-1179 1167 -1128 0
-1179 -1167 1128 0
1179 1167 1128 0
1179 -1167 -1128 0
-1180 31 0
-1180 1067 0
1180 -31 -1067 0
-1181 1179 0
-1181 1180 0
1181 -1179 -1180 0
-1182 -1180 -1179 0
-1182 1180 1179 0
1182 -1180 1179 0
1182 1180 -1179 0
-1183 1165 -1132 0
-1183 -1165 1132 0
1183 1165 1132 0
1183 -1165 -1132 0
-1184 31 0
-1184 1072 0
1184 -31 -1072 0
-1185 1183 0
-1185 1184 0
1185 -1183 -1184 0
-1186 -1184 -1183 0
-1186 1184 1183 0
1186 -1184 1183 0
1186 1184 -1183 0
-1187 1163 -1136 0
-1187 -1163 1136 0
1187 1163 1136 0
1187 -1163 -1136 0
-1188 31 0
-1188 1077 0
1188 -31 -1077 0
-1189 1187 0
-1189 1188 0
1189 -1187 -1188 0
-1190 -1188 -1187 0
-1190 1188 1187 0
1190 -1188 1187 0
1190 1188 -1187 0
-1191 1161 -1140 0
-1191 -1161 1140 0
1191 1161 1140 0
1191 -1161 -1140 0
-1192 31 0
-1192 1082 0
1192 -31 -1082 0
-1193 1191 0
-1193 1192 0
1193 -1191 -1192 0
-1194 -1192 -1191 0
-1194 1192 1191 0
1194 -1192 1191 0
1194 1192 -1191 0
-1195 1159 -1144 0
-1195 -1159 1144 0
1195 1159 1144 0
1195 -1159 -1144 0
-1196 31 0
-1196 1087 0
1196 -31 -1087 0
-1197 1195 0
-1197 1196 0
1197 -1195 -1196 0
-1198 -1196 -1195 0
-1198 1196 1195 0
1198 -1196 1195 0
1198 1196 -1195 0
-1199 1157 -1148 0
-1199 -1157 1148 0
1199 1157 1148 0
1199 -1157 -1148 0
-1200 31 0
-1200 1092 0
1200 -31 -1092 0
-1201 1199 0
-1201 1200 0
1201 -1199 -1200 0
-1202 -1200 -1199 0
-1202 1200 1199 0
1202 -1200 1199 0
1202 1200 -1199 0
-1203 -1155 -1152 0
-1203 1155 1152 0
1203 -1155 1152 0
1203 1155 -1152 0
-1204 31 0
-1204 1097 0
1204 -31 -1097 0
-1205 1203 0
-1205 1204 0
1205 -1203 -1204 0
-1206 1202 0
-1206 1205 0
1206 -1202 -1205 0
-1207 -1201 0
-1207 -1206 0
1207 1201 1206 0
-1208 1198 0
-1208 -1207 0
1208 -1198 1207 0
-1209 -1197 0
-1209 -1208 0
1209 1197 1208 0
-1210 1194 0
-1210 -1209 0
1210 -1194 1209 0
-1211 -1193 0
-1211 -1210 0
1211 1193 1210 0
-1212 1190 0
-1212 -1211 0
1212 -1190 1211 0
-1213 -1189 0
-1213 -1212 0
1213 1189 1212 0
-1214 1186 0
-1214 -1213 0
1214 -1186 1213 0
-1215 -1185 0
-1215 -1214 0
1215 1185 1214 0
-1216 1182 0
-1216 -1215 0
1216 -1182 1215 0
-1217 -1181 0
-1217 -1216 0
1217 1181 1216 0
-1218 1178 0
-1218 -1217 0
1218 -1178 1217 0
-1219 -1177 0
-1219 -1218 0
1219 1177 1218 0
-1220 1219 -1174 0
-1220 -1219 1174 0
1220 1219 1174 0
1220 -1219 -1174 0
-1221 30 0
-1221 1062 0
1221 -30 -1062 0
-1222 -1221 -1220 0
-1222 1221 1220 0
1222 -1221 1220 0
1222 1221 -1220 0
-1223 1217 -1178 0
-1223 -1217 1178 0
1223 1217 1178 0
1223 -1217 -1178 0
-1224 30 0
-1224 1067 0
1224 -30 -1067 0
-1225 1223 0
-1225 1224 0
1225 -1223 -1224 0
-1226 -1224 -1223 0
-1226 1224 1223 0
1226 -1224 1223 0
1226 1224 -1223 0
-1227 1215 -1182 0
-1227 -1215 1182 0
1227 1215 1182 0
1227 -1215 -1182 0
-1228 30 0
-1228 1072 0
1228 -30 -1072 0
-1229 1227 0
-1229 1228 0
1229 -1227 -1228 0
-1230 -1228 -1227 0
-1230 1228 1227 0
1230 -1228 1227 0
1230 1228 -1227 0
-1231 1213 -1186 0
-1231 -1213 1186 0
1231 1213 1186 0
1231 -1213 -1186 0
-1232 30 0
-1232 1077 0
1232 -30 -1077 0
-1233 1231 0
-1233 1232 0
1233 -1231 -1232 0
-1234 -1232 -1231 0
-1234 1232 1231 0
1234 -1232 1231 0
1234 1232 -1231 0
-1235 1211 -1190 0
-1235 -1211 1190 0
1235 1211 1190 0
1235 -1211 -1190 0
-1236 30 0
-1236 1082 0
1236 -30 -1082 0
-1237 1235 0
-1237 1236 0
1237 -1235 -1236 0
-1238 -1236 -1235 0
-1238 1236 1235 0
1238 -1236 1235 0
1238 1236 -1235 0
-1239 1209 -1194 0
-1239 -1209 1194 0
1239 1209 1194 0
1239 -1209 -1194 0
-1240 30 0
-1240 1087 0
1240 -30 -1087 0
-1241 1239 0
-1241 1240 0
1241 -1239 -1240 0
-1242 -1240 -1239 0
-1242 1240 1239 0
1242 -1240 1239 0
1242 1240 -1239 0
-1243 1207 -1198 0
-1243 -1207 1198 0
1243 1207 1198 0
1243 -1207 -1198 0
-1244 30 0
-1244 1092 0
1244 -30 -1092 0
-1245 1243 0
-1245 1244 0
1245 -1243 -1244 0
-1246 -1244 -1243 0
-1246 1244 1243 0
1246 -1244 1243 0
1246 1244 -1243 0
-1247 -1205 -1202 0
-1247 1205 1202 0
1247 -1205 1202 0
1247 1205 -1202 0
-1248 30 0
-1248 1097 0
1248 -30 -1097 0
-1249 1247 0
-1249 1248 0
1249 -1247 -1248 0
-1250 1246 0
-1250 1249 0
1250 -1246 -1249 0
-1251 -1245 0
-1251 -1250 0
1251 1245 1250 0
-1252 1242 0
-1252 -1251 0
1252 -1242 1251 0
-1253 -1241 0
-1253 -1252 0
1253 1241 1252 0
-1254 1238 0
-1254 -1253 0
1254 -1238 1253 0
-1255 -1237 0
-1255 -1254 0
1255 1237 1254 0
-1256 1234 0
-1256 -1255 0
1256 -1234 1255 0
-1257 -1233 0
-1257 -1256 0
1257 1233 1256 0
-1258 1230 0
-1258 -1257 0
1258 -1230 1257 0
-1259 -1229 0
-1259 -1258 0
1259 1229 1258 0
-1260 1226 0
-1260 -1259 0
1260 -1226 1259 0
-1261 -1225 0
-1261 -1260 0
1261 1225 1260 0
-1262 1261 -1222 0
-1262 -1261 1222 0
1262 1261 1222 0
1262 -1261 -1222 0
-1263 29 0
-1263 1067 0
1263 -29 -1067 0
-1264 -1263 -1262 0
-1264 1263 1262 0
1264 -1263 1262 0
1264 1263 -1262 0
-1265 1259 -1226 0
-1265 -1259 1226 0
1265 1259 1226 0
1265 -1259 -1226 0
-1266 29 0
-1266 1072 0
1266 -29 -1072 0
-1267 1265 0
-1267 1266 0
1267 -1265 -1266 0
-1268 -1266 -1265 0
-1268 1266 1265 0
1268 -1266 1265 0
1268 1266 -1265 0
-1269 1257 -1230 0
-1269 -1257 1230 0
1269 1257 1230 0
1269 -1257 -1230 0
-1270 29 0
-1270 1077 0
1270 -29 -1077 0
-1271 1269 0
-1271 1270 0
1271 -1269 -1270 0
-1272 -1270 -1269 0
-1272 1270 1269 0
1272 -1270 1269 0
1272 1270 -1269 0
-1273 1255 -1234 0
-1273 -1255 1234 0
1273 1255 1234 0
1273 -1255 -1234 0
-1274 29 0
-1274 1082 0
1274 -29 -1082 0
-1275 1273 0
-1275 1274 0
1275 -1273 -1274 0
-1276 -1274 -1273 0
-1276 1274 1273 0
1276 -1274 1273 0
1276 1274 -1273 0
-1277 1253 -1238 0
-1277 -1253 1238 0
1277 1253 1238 0
1277 -1253 -1238 0
-1278 29 0
-1278 1087 0
1278 -29 -1087 0
-1279 1277 0
-1279 1278 0
1279 -1277 -1278 0
-1280 -1278 -1277 0
-1280 1278 1277 0
1280 -1278 1277 0
1280 1278 -1277 0
-1281 1251 -1242 0
-1281 -1251 1242 0
1281 1251 1242 0
1281 -1251 -1242 0
-1282 29 0
-1282 1092 0
1282 -29 -1092 0
-1283 1281 0
-1283 1282 0
1283 -1281 -1282 0
-1284 -1282 -1281 0
-1284 1282 1281 0
1284 -1282 1281 0
1284 1282 -1281 0
-1285 -1249 -1246 0
-1285 1249 1246 0
1285 -1249 1246 0
1285 1249 -1246 0
-1286 29 0
-1286 1097 0
1286 -29 -1097 0
-1287 1285 0
-1287 1286 0
1287 -1285 -1286 0
-1288 1284 0
-1288 1287 0
1288 -1284 -1287 0
-1289 -1283 0
-1289 -1288 0
1289 1283 1288 0
-1290 1280 0
-1290 -1289 0
1290 -1280 1289 0
-1291 -1279 0
-1291 -1290 0
1291 1279 1290 0
-1292 1276 0
-1292 -1291 0
1292 -1276 1291 0
-1293 -1275 0
-1293 -1292 0
1293 1275 1292 0
-1294 1272 0
-1294 -1293 0
1294 -1272 1293 0
-1295 -1271 0
-1295 -1294 0
1295 1271 1294 0
-1296 1268 0
-1296 -1295 0
1296 -1268 1295 0
-1297 -1267 0
-1297 -1296 0
1297 1267 1296 0
-1298 1297 -1264 0
-1298 -1297 1264 0
1298 1297 1264 0
1298 -1297 -1264 0
-1299 28 0
-1299 1072 0
1299 -28 -1072 0
-1300 -1299 -1298 0
-1300 1299 1298 0
1300 -1299 1298 0
1300 1299 -1298 0
-1301 1295 -1268 0
-1301 -1295 1268 0
1301 1295 1268 0
1301 -1295 -1268 0
-1302 28 0
-1302 1077 0
1302 -28 -1077 0
-1303 1301 0
-1303 1302 0
1303 -1301 -1302 0
-1304 -1302 -1301 0
-1304 1302 1301 0
1304 -1302 1301 0
1304 1302 -1301 0
-1305 1293 -1272 0
-1305 -1293 1272 0
1305 1293 1272 0
1305 -1293 -1272 0
-1306 28 0
-1306 1082 0
1306 -28 -1082 0
-1307 1305 0
-1307 1306 0
1307 -1305 -1306 0
-1308 -1306 -1305 0
-1308 1306 1305 0
1308 -1306 1305 0
1308 1306 -1305 0
-1309 1291 -1276 0
-1309 -1291 1276 0
1309 1291 1276 0
1309 -1291 -1276 0
-1310 28 0
-1310 1087 0
1310 -28 -1087 0
-1311 1309 0
-1311 1310 0
1311 -1309 -1310 0
-1312 -1310 -1309 0
-1312 1310 1309 0
1312 -1310 1309 0
1312 1310 -1309 0
-1313 1289 -1280 0
-1313 -1289 1280 0
1313 1289 1280 0
1313 -1289 -1280 0
-1314 28 0
-1314 1092 0
1314 -28 -1092 0
-1315 1313 0
-1315 1314 0
1315 -1313 -1314 0
-1316 -1314 -1313 0
-1316 1314 1313 0
1316 -1314 1313 0
1316 1314 -1313 0
-1317 -1287 -1284 0
-1317 1287 1284 0
1317 -1287 1284 0
1317 1287 -1284 0
-1318 28 0
-1318 1097 0
1318 -28 -1097 0
-1319 1317 0
-1319 1318 0
1319 -1317 -1318 0
-1320 1316 0
-1320 1319 0
1320 -1316 -1319 0
-1321 -1315 0
-1321 -1320 0
1321 1315 1320 0
-1322 1312 0
-1322 -1321 0
1322 -1312 1321 0
-1323 -1311 0
-1323 -1322 0
1323 1311 1322 0
-1324 1308 0
-1324 -1323 0
1324 -1308 1323 0
-1325 -1307 0
-1325 -1324 0
1325 1307 1324 0
-1326 1304 0
-1326 -1325 0
1326 -1304 1325 0
-1327 -1303 0
-1327 -1326 0
1327 1303 1326 0
-1328 1327 -1300 0
-1328 -1327 1300 0
1328 1327 1300 0
1328 -1327 -1300 0
-1329 27 0
-1329 1077 0
1329 -27 -1077 0
-1330 -1329 -1328 0
-1330 1329 1328 0
1330 -1329 1328 0
1330 1329 -1328 0
-1331 1325 -1304 0
-1331 -1325 1304 0
1331 1325 1304 0
1331 -1325 -1304 0
-1332 27 0
-1332 1082 0
1332 -27 -1082 0
-1333 1331 0
-1333 1332 0
1333 -1331 -1332 0
-1334 -1332 -1331 0
-1334 1332 1331 0
1334 -1332 1331 0
1334 1332 -1331 0
-1335 1323 -1308 0
-1335 -1323 1308 0
1335 1323 1308 0
1335 -1323 -1308 0
-1336 27 0
-1336 1087 0
1336 -27 -1087 0
-1337 1335 0
-1337 1336 0
1337 -1335 -1336 0
-1338 -1336 -1335 0
-1338 1336 1335 0
1338 -1336 1335 0
1338 1336 -1335 0
-1339 1321 -1312 0
-1339 -1321 1312 0
1339 1321 1312 0
1339 -1321 -1312 0
-1340 27 0
-1340 1092 0
1340 -27 -1092 0
-1341 1339 0
-1341 1340 0
1341 -1339 -1340 0
-1342 -1340 -1339 0
-1342 1340 1339 0
1342 -1340 1339 0
1342 1340 -1339 0
-1343 -1319 -1316 0
-1343 1319 1316 0
1343 -1319 1316 0
1343 1319 -1316 0
-1344 27 0
-1344 1097 0
1344 -27 -1097 0
-1345 1343 0
-1345 1344 0
1345 -1343 -1344 0
-1346 1342 0
-1346 1345 0
1346 -1342 -1345 0
-1347 -1341 0
-1347 -1346 0
1347 1341 1346 0
-1348 1338 0
-1348 -1347 0
1348 -1338 1347 0
-1349 -1337 0
-1349 -1348 0
1349 1337 1348 0
-1350 1334 0
-1350 -1349 0
1350 -1334 1349 0
-1351 -1333 0
-1351 -1350 0
1351 1333 1350 0
-1352 1351 -1330 0
-1352 -1351 1330 0
1352 1351 1330 0
1352 -1351 -1330 0
-1353 26 0
-1353 1082 0
1353 -26 -1082 0
-1354 -1353 -1352 0
-1354 1353 1352 0
1354 -1353 1352 0
1354 1353 -1352 0
-1355 1349 -1334 0
-1355 -1349 1334 0
1355 1349 1334 0
1355 -1349 -1334 0
-1356 26 0
-1356 1087 0
1356 -26 -1087 0
-1357 1355 0
-1357 1356 0
1357 -1355 -1356 0
-1358 -1356 -1355 0
-1358 1356 1355 0
1358 -1356 1355 0
1358 1356 -1355 0
-1359 1347 -1338 0
-1359 -1347 1338 0
1359 1347 1338 0
1359 -1347 -1338 0
-1360 26 0
-1360 1092 0
1360 -26 -1092 0
-1361 1359 0
-1361 1360 0
1361 -1359 -1360 0
-1362 -1360 -1359 0
-1362 1360 1359 0
1362 -1360 1359 0
1362 1360 -1359 0
-1363 -1345 -1342 0
-1363 1345 1342 0
1363 -1345 1342 0
1363 1345 -1342 0
-1364 26 0
-1364 1097 0
1364 -26 -1097 0
-1365 1363 0
-1365 1364 0
1365 -1363 -1364 0
-1366 1362 0
-1366 1365 0
1366 -1362 -1365 0
-1367 -1361 0
-1367 -1366 0
1367 1361 1366 0
-1368 1358 0
-1368 -1367 0
1368 -1358 1367 0
-1369 -1357 0
-1369 -1368 0
1369 1357 1368 0
-1370 1369 -1354 0
-1370 -1369 1354 0
1370 1369 1354 0
1370 -1369 -1354 0
-1371 25 0
-1371 1087 0
1371 -25 -1087 0
-1372 -1371 -1370 0
-1372 1371 1370 0
1372 -1371 1370 0
1372 1371 -1370 0
-1373 1367 -1358 0
-1373 -1367 1358 0
1373 1367 1358 0
1373 -1367 -1358 0
-1374 25 0
-1374 1092 0
1374 -25 -1092 0
-1375 1373 0
-1375 1374 0
1375 -1373 -1374 0
-1376 -1374 -1373 0
-1376 1374 1373 0
1376 -1374 1373 0
1376 1374 -1373 0
-1377 -1365 -1362 0
-1377 1365 1362 0
1377 -1365 1362 0
1377 1365 -1362 0
-1378 25 0
-1378 1097 0
1378 -25 -1097 0
-1379 1377 0
-1379 1378 0
1379 -1377 -1378 0
-1380 1376 0
-1380 1379 0
1380 -1376 -1379 0
-1381 -1375 0
-1381 -1380 0
1381 1375 1380 0
-1382 1381 -1372 0
-1382 -1381 1372 0
1382 1381 1372 0
1382 -1381 -1372 0
-1383 24 0
-1383 1092 0
1383 -24 -1092 0
-1384 -1383 -1382 0
-1384 1383 1382 0
1384 -1383 1382 0
1384 1383 -1382 0
-1385 -1379 -1376 0
-1385 1379 1376 0
1385 -1379 1376 0
1385 1379 -1376 0
-1386 24 0
-1386 1097 0
1386 -24 -1097 0
-1387 1385 0
-1387 1386 0
1387 -1385 -1386 0
-1388 -1387 -1384 0
-1388 1387 1384 0
1388 -1387 1384 0
1388 1387 -1384 0
-1389 23 0
-1389 1097 0
1389 -23 -1097 0
-1390 -1389 -1388 0
-1390 1389 1388 0
1390 -1389 1388 0
1390 1389 -1388 0
1391 1390 713 0
1391 -1390 -713 0
-1392 -667 -666 0
-1392 667 666 0
1392 -667 666 0
1392 667 -666 0
-1393 -1386 -1385 0
-1393 1386 1385 0
1393 -1386 1385 0
1393 1386 -1385 0
1394 1393 1392 0
1394 -1393 -1392 0
1395 -1391 -1394 0
-1396 -602 -601 0
-1396 602 601 0
1396 -602 601 0
1396 602 -601 0
-1397 -1378 -1377 0
-1397 1378 1377 0
1397 -1378 1377 0
1397 1378 -1377 0
1398 1397 1396 0
1398 -1397 -1396 0
1399 -1395 -1398 0
-1400 -537 -536 0
-1400 537 536 0
1400 -537 536 0
1400 537 -536 0
-1401 -1364 -1363 0
-1401 1364 1363 0
1401 -1364 1363 0
1401 1364 -1363 0
1402 1401 1400 0
1402 -1401 -1400 0
1403 -1399 -1402 0
-1404 -472 -471 0
-1404 472 471 0
1404 -472 471 0
1404 472 -471 0
-1405 -1344 -1343 0
-1405 1344 1343 0
1405 -1344 1343 0
1405 1344 -1343 0
1406 1405 1404 0
1406 -1405 -1404 0
1407 -1403 -1406 0
-1408 -407 -406 0
-1408 407 406 0
1408 -407 406 0
1408 407 -406 0
-1409 -1318 -1317 0
-1409 1318 1317 0
1409 -1318 1317 0
1409 1318 -1317 0
1410 1409 1408 0
1410 -1409 -1408 0
1411 -1407 -1410 0
-1412 -342 -341 0
-1412 342 341 0
1412 -342 341 0
1412 342 -341 0
-1413 -1286 -1285 0
-1413 1286 1285 0
1413 -1286 1285 0
1413 1286 -1285 0
1414 1413 1412 0
1414 -1413 -1412 0
1415 -1411 -1414 0
-1416 -277 -276 0
-1416 277 276 0
1416 -277 276 0
1416 277 -276 0
-1417 -1248 -1247 0
-1417 1248 1247 0
1417 -1248 1247 0
1417 1248 -1247 0
1418 1417 1416 0
1418 -1417 -1416 0
1419 -1415 -1418 0
-1420 -212 -211 0
-1420 212 211 0
1420 -212 211 0
1420 212 -211 0
-1421 -1204 -1203 0
-1421 1204 1203 0
1421 -1204 1203 0
1421 1204 -1203 0
1422 1421 1420 0
1422 -1421 -1420 0
1423 -1419 -1422 0
-1424 -147 -146 0
-1424 147 146 0
1424 -147 146 0
1424 147 -146 0
-1425 -1154 -1153 0
-1425 1154 1153 0
1425 -1154 1153 0
1425 1154 -1153 0
1426 1425 1424 0
1426 -1425 -1424 0
1427 -1423 -1426 0
-1428 -82 -81 0
-1428 82 81 0
1428 -82 81 0
1428 82 -81 0
-1429 -1098 -1096 0
-1429 1098 1096 0
1429 -1098 1096 0
1429 1098 -1096 0
1430 1429 1428 0
1430 -1429 -1428 0
1431 -1427 -1430 0
-1432 36 0
-1432 37 0
1432 -36 -37 0
-1433 35 0
-1433 1097 0
1433 -35 -1097 0
1434 1433 1432 0
1434 -1433 -1432 0
1435 -1431 -1434 0
1436 -32 -33 0
-1437 -31 0
-1437 -1436 0
1438 -30 1437 0
-1439 -29 0
-1439 -1438 0
-1440 -28 0
-1440 1439 0
-1441 -27 0
-1441 1440 0
1442 -26 1441 0
1443 -25 -1442 0
-1444 -24 0
-1444 -1443 0
1445 -23 1444 0
1446 -10 -11 0
-1447 -9 0
-1447 -1446 0
1448 -8 1447 0
-1449 -7 0
-1449 -1448 0
-1450 -6 0
-1450 1449 0
-1451 -5 0
-1451 1450 0
1452 -4 1451 0
1453 -3 -1452 0
-1454 -2 0
-1454 -1453 0
1455 -1 1454 0
1456 -21 -22 0
-1457 -20 0
-1457 -1456 0
1458 -19 1457 0
-1459 -18 0
-1459 -1458 0
-1460 -17 0
-1460 1459 0
-1461 -16 0
-1461 1460 0
1462 -15 1461 0
1463 -14 -1462 0
-1464 -13 0
-1464 -1463 0
1465 -12 1464 0
-1466 -1455 0
-1466 -1465 0
-1467 -1445 0
-1467 1466 0
-1468 -1435 0
-1468 1467 0
1468 0
