p cnf 51 107
13 10 1 0
13 -10 -1 0
14 11 8 0
14 -11 -8 0
15 -13 -14 0
16 12 9 0
16 -12 -9 0
17 -15 -16 0
-18 2 0
-18 3 0
18 -2 -3 0
-19 4 0
-19 5 0
19 -4 -5 0
-20 -19 -18 0
-20 19 18 0
20 -19 18 0
20 19 -18 0
-21 3 0
-21 4 0
21 -3 -4 0
-22 5 0
-22 6 0
22 -5 -6 0
-23 21 0
-23 22 0
23 -21 -22 0
-24 -23 -20 0
-24 23 20 0
24 -23 20 0
24 23 -20 0
-25 6 0
-25 7 0
25 -6 -7 0
-26 -25 -24 0
-26 25 24 0
26 -25 24 0
26 25 -24 0
-27 26 -1 0
-27 -26 1 0
-28 -22 -21 0
-28 22 21 0
28 -22 21 0
28 22 -21 0
-29 28 -8 0
-29 -28 8 0
-30 27 0
-30 29 0
-31 3 0
-31 6 0
31 -3 -6 0
-32 31 -9 0
-32 -31 9 0
-33 30 0
-33 32 0
-34 6 0
-34 7 0
34 -6 -7 0
-35 4 0
-35 5 0
35 -4 -5 0
-36 -35 -34 0
-36 35 34 0
36 -35 34 0
36 35 -34 0
-37 5 0
-37 6 0
37 -5 -6 0
-38 3 0
-38 4 0
38 -3 -4 0
-39 37 0
-39 38 0
39 -37 -38 0
-40 -39 -36 0
-40 39 36 0
40 -39 36 0
40 39 -36 0
-41 2 0
-41 3 0
41 -2 -3 0
-42 -41 -40 0
-42 41 40 0
42 -41 40 0
42 41 -40 0
-43 42 -10 0
-43 -42 10 0
-44 -38 -37 0
-44 38 37 0
44 -38 37 0
44 38 -37 0
-45 44 -11 0
-45 -44 11 0
-46 43 0
-46 45 0
-47 3 0
-47 6 0
47 -3 -6 0
-48 47 -12 0
-48 -47 12 0
-49 46 0
-49 48 0
-50 33 0
-50 49 0
-51 -17 0
-51 50 0
51 0
