p cnf 555 1640
41 31 1 0
41 -31 -1 0
42 32 22 0
42 -32 -22 0
43 -41 -42 0
44 33 23 0
44 -33 -23 0
45 -43 -44 0
46 34 24 0
46 -34 -24 0
47 -45 -46 0
48 35 25 0
48 -35 -25 0
49 -47 -48 0
50 36 26 0
50 -36 -26 0
51 -49 -50 0
52 37 27 0
52 -37 -27 0
53 -51 -52 0
54 38 28 0
54 -38 -28 0
55 -53 -54 0
56 39 29 0
56 -39 -29 0
57 -55 -56 0
58 40 30 0
58 -40 -30 0
59 -57 -58 0
-60 2 0
-60 3 0
60 -2 -3 0
-61 4 0
-61 5 0
61 -4 -5 0
-62 -61 -60 0
-62 61 60 0
62 -61 60 0
62 61 -60 0
-63 3 0
-63 4 0
63 -3 -4 0
-64 5 0
-64 6 0
64 -5 -6 0
-65 63 0
-65 64 0
65 -63 -64 0
-66 -64 -63 0
-66 64 63 0
66 -64 63 0
66 64 -63 0
-67 3 0
-67 6 0
67 -3 -6 0
-68 5 0
-68 7 0
68 -5 -7 0
-69 67 0
-69 68 0
69 -67 -68 0
-70 -68 -67 0
-70 68 67 0
70 -68 67 0
70 68 -67 0
-71 3 0
-71 7 0
71 -3 -7 0
-72 5 0
-72 8 0
72 -5 -8 0
-73 71 0
-73 72 0
73 -71 -72 0
-74 -72 -71 0
-74 72 71 0
74 -72 71 0
74 72 -71 0
-75 3 0
-75 8 0
75 -3 -8 0
-76 5 0
-76 9 0
76 -5 -9 0
-77 75 0
-77 76 0
77 -75 -76 0
-78 -76 -75 0
-78 76 75 0
78 -76 75 0
78 76 -75 0
-79 3 0
-79 9 0
79 -3 -9 0
-80 5 0
-80 10 0
80 -5 -10 0
-81 79 0
-81 80 0
81 -79 -80 0
-82 -80 -79 0
-82 80 79 0
82 -80 79 0
82 80 -79 0
-83 3 0
-83 10 0
83 -3 -10 0
-84 5 0
-84 11 0
84 -5 -11 0
-85 83 0
-85 84 0
85 -83 -84 0
-86 -84 -83 0
-86 84 83 0
86 -84 83 0
86 84 -83 0
-87 3 0
-87 11 0
87 -3 -11 0
-88 5 0
-88 12 0
88 -5 -12 0
-89 87 0
-89 88 0
89 -87 -88 0
-90 -88 -87 0
-90 88 87 0
90 -88 87 0
90 88 -87 0
-91 3 0
-91 12 0
91 -3 -12 0
-92 5 0
-92 13 0
92 -5 -13 0
-93 91 0
-93 92 0
93 -91 -92 0
-94 90 0
-94 93 0
94 -90 -93 0
-95 -89 0
-95 -94 0
95 89 94 0
-96 86 0
-96 -95 0
96 -86 95 0
-97 -85 0
-97 -96 0
97 85 96 0
-98 82 0
-98 -97 0
98 -82 97 0
-99 -81 0
-99 -98 0
99 81 98 0
-100 78 0
-100 -99 0
100 -78 99 0
-101 -77 0
-101 -100 0
101 77 100 0
-102 74 0
-102 -101 0
102 -74 101 0
-103 -73 0
-103 -102 0
103 73 102 0
-104 70 0
-104 -103 0
104 -70 103 0
-105 -69 0
-105 -104 0
105 69 104 0
-106 66 0
-106 -105 0
106 -66 105 0
-107 -65 0
-107 -106 0
107 65 106 0
-108 107 -62 0
-108 -107 62 0
108 107 62 0
108 -107 -62 0
-109 6 0
-109 14 0
109 -6 -14 0
-110 -109 -108 0
-110 109 108 0
110 -109 108 0
110 109 -108 0
-111 105 -66 0
-111 -105 66 0
111 105 66 0
111 -105 -66 0
-112 7 0
-112 14 0
112 -7 -14 0
-113 111 0
-113 112 0
113 -111 -112 0
-114 -112 -111 0
-114 112 111 0
114 -112 111 0
114 112 -111 0
-115 103 -70 0
-115 -103 70 0
115 103 70 0
115 -103 -70 0
-116 8 0
-116 14 0
116 -8 -14 0
-117 115 0
-117 116 0
117 -115 -116 0
-118 -116 -115 0
-118 116 115 0
118 -116 115 0
118 116 -115 0
-119 101 -74 0
-119 -101 74 0
119 101 74 0
119 -101 -74 0
-120 9 0
-120 14 0
120 -9 -14 0
-121 119 0
-121 120 0
121 -119 -120 0
-122 -120 -119 0
-122 120 119 0
122 -120 119 0
122 120 -119 0
-123 99 -78 0
-123 -99 78 0
123 99 78 0
123 -99 -78 0
-124 10 0
-124 14 0
124 -10 -14 0
-125 123 0
-125 124 0
125 -123 -124 0
-126 -124 -123 0
-126 124 123 0
126 -124 123 0
126 124 -123 0
-127 97 -82 0
-127 -97 82 0
127 97 82 0
127 -97 -82 0
-128 11 0
-128 14 0
128 -11 -14 0
-129 127 0
-129 128 0
129 -127 -128 0
-130 -128 -127 0
-130 128 127 0
130 -128 127 0
130 128 -127 0
-131 95 -86 0
-131 -95 86 0
131 95 86 0
131 -95 -86 0
-132 12 0
-132 14 0
132 -12 -14 0
-133 131 0
-133 132 0
133 -131 -132 0
-134 -132 -131 0
-134 132 131 0
134 -132 131 0
134 132 -131 0
-135 -93 -90 0
-135 93 90 0
135 -93 90 0
135 93 -90 0
-136 13 0
-136 14 0
136 -13 -14 0
-137 135 0
-137 136 0
137 -135 -136 0
-138 134 0
-138 137 0
138 -134 -137 0
-139 -133 0
-139 -138 0
139 133 138 0
-140 130 0
-140 -139 0
140 -130 139 0
-141 -129 0
-141 -140 0
141 129 140 0
-142 126 0
-142 -141 0
142 -126 141 0
-143 -125 0
-143 -142 0
143 125 142 0
-144 122 0
-144 -143 0
144 -122 143 0
-145 -121 0
-145 -144 0
145 121 144 0
-146 118 0
-146 -145 0
146 -118 145 0
-147 -117 0
-147 -146 0
147 117 146 0
-148 114 0
-148 -147 0
148 -114 147 0
-149 -113 0
-149 -148 0
149 113 148 0
-150 149 -110 0
-150 -149 110 0
150 149 110 0
150 -149 -110 0
-151 7 0
-151 15 0
151 -7 -15 0
-152 -151 -150 0
-152 151 150 0
152 -151 150 0
152 151 -150 0
-153 147 -114 0
-153 -147 114 0
153 147 114 0
153 -147 -114 0
-154 8 0
-154 15 0
154 -8 -15 0
-155 153 0
-155 154 0
155 -153 -154 0
-156 -154 -153 0
-156 154 153 0
156 -154 153 0
156 154 -153 0
-157 145 -118 0
-157 -145 118 0
157 145 118 0
157 -145 -118 0
-158 9 0
-158 15 0
158 -9 -15 0
-159 157 0
-159 158 0
159 -157 -158 0
-160 -158 -157 0
-160 158 157 0
160 -158 157 0
160 158 -157 0
-161 143 -122 0
-161 -143 122 0
161 143 122 0
161 -143 -122 0
-162 10 0
-162 15 0
162 -10 -15 0
-163 161 0
-163 162 0
163 -161 -162 0
-164 -162 -161 0
-164 162 161 0
164 -162 161 0
164 162 -161 0
-165 141 -126 0
-165 -141 126 0
165 141 126 0
165 -141 -126 0
-166 11 0
-166 15 0
166 -11 -15 0
-167 165 0
-167 166 0
167 -165 -166 0
-168 -166 -165 0
-168 166 165 0
168 -166 165 0
168 166 -165 0
-169 139 -130 0
-169 -139 130 0
169 139 130 0
169 -139 -130 0
-170 12 0
-170 15 0
170 -12 -15 0
-171 169 0
-171 170 0
171 -169 -170 0
-172 -170 -169 0
-172 170 169 0
172 -170 169 0
172 170 -169 0
-173 -137 -134 0
-173 137 134 0
173 -137 134 0
173 137 -134 0
-174 13 0
-174 15 0
174 -13 -15 0
-175 173 0
-175 174 0
175 -173 -174 0
-176 172 0
-176 175 0
176 -172 -175 0
-177 -171 0
-177 -176 0
177 171 176 0
-178 168 0
-178 -177 0
178 -168 177 0
-179 -167 0
-179 -178 0
179 167 178 0
-180 164 0
-180 -179 0
180 -164 179 0
-181 -163 0
-181 -180 0
181 163 180 0
-182 160 0
-182 -181 0
182 -160 181 0
-183 -159 0
-183 -182 0
183 159 182 0
-184 156 0
-184 -183 0
184 -156 183 0
-185 -155 0
-185 -184 0
185 155 184 0
-186 185 -152 0
-186 -185 152 0
186 185 152 0
186 -185 -152 0
-187 8 0
-187 16 0
187 -8 -16 0
-188 -187 -186 0
-188 187 186 0
188 -187 186 0
188 187 -186 0
-189 183 -156 0
-189 -183 156 0
189 183 156 0
189 -183 -156 0
-190 9 0
-190 16 0
190 -9 -16 0
-191 189 0
-191 190 0
191 -189 -190 0
-192 -190 -189 0
-192 190 189 0
192 -190 189 0
192 190 -189 0
-193 181 -160 0
-193 -181 160 0
193 181 160 0
193 -181 -160 0
-194 10 0
-194 16 0
194 -10 -16 0
-195 193 0
-195 194 0
195 -193 -194 0
-196 -194 -193 0
-196 194 193 0
196 -194 193 0
196 194 -193 0
-197 179 -164 0
-197 -179 164 0
197 179 164 0
197 -179 -164 0
-198 11 0
-198 16 0
198 -11 -16 0
-199 197 0
-199 198 0
199 -197 -198 0
-200 -198 -197 0
-200 198 197 0
200 -198 197 0
200 198 -197 0
-201 177 -168 0
-201 -177 168 0
201 177 168 0
201 -177 -168 0
-202 12 0
-202 16 0
202 -12 -16 0
-203 201 0
-203 202 0
203 -201 -202 0
-204 -202 -201 0
-204 202 201 0
204 -202 201 0
204 202 -201 0
-205 -175 -172 0
-205 175 172 0
205 -175 172 0
205 175 -172 0
-206 13 0
-206 16 0
206 -13 -16 0
-207 205 0
-207 206 0
207 -205 -206 0
-208 204 0
-208 207 0
208 -204 -207 0
-209 -203 0
-209 -208 0
209 203 208 0
-210 200 0
-210 -209 0
210 -200 209 0
-211 -199 0
-211 -210 0
211 199 210 0
-212 196 0
-212 -211 0
212 -196 211 0
-213 -195 0
-213 -212 0
213 195 212 0
-214 192 0
-214 -213 0
214 -192 213 0
-215 -191 0
-215 -214 0
215 191 214 0
-216 215 -188 0
-216 -215 188 0
216 215 188 0
216 -215 -188 0
-217 9 0
-217 17 0
217 -9 -17 0
-218 -217 -216 0
-218 217 216 0
218 -217 216 0
218 217 -216 0
-219 213 -192 0
-219 -213 192 0
219 213 192 0
219 -213 -192 0
-220 10 0
-220 17 0
220 -10 -17 0
-221 219 0
-221 220 0
221 -219 -220 0
-222 -220 -219 0
-222 220 219 0
222 -220 219 0
222 220 -219 0
-223 211 -196 0
-223 -211 196 0
223 211 196 0
223 -211 -196 0
-224 11 0
-224 17 0
224 -11 -17 0
-225 223 0
-225 224 0
225 -223 -224 0
-226 -224 -223 0
-226 224 223 0
226 -224 223 0
226 224 -223 0
-227 209 -200 0
-227 -209 200 0
227 209 200 0
227 -209 -200 0
-228 12 0
-228 17 0
228 -12 -17 0
-229 227 0
-229 228 0
229 -227 -228 0
-230 -228 -227 0
-230 228 227 0
230 -228 227 0
230 228 -227 0
-231 -207 -204 0
-231 207 204 0
231 -207 204 0
231 207 -204 0
-232 13 0
-232 17 0
232 -13 -17 0
-233 231 0
-233 232 0
233 -231 -232 0
-234 230 0
-234 233 0
234 -230 -233 0
-235 -229 0
-235 -234 0
235 229 234 0
-236 226 0
-236 -235 0
236 -226 235 0
-237 -225 0
-237 -236 0
237 225 236 0
-238 222 0
-238 -237 0
238 -222 237 0
-239 -221 0
-239 -238 0
239 221 238 0
-240 239 -218 0
-240 -239 218 0
240 239 218 0
240 -239 -218 0
-241 10 0
-241 18 0
241 -10 -18 0
-242 -241 -240 0
-242 241 240 0
242 -241 240 0
242 241 -240 0
-243 237 -222 0
-243 -237 222 0
243 237 222 0
243 -237 -222 0
-244 11 0
-244 18 0
244 -11 -18 0
-245 243 0
-245 244 0
245 -243 -244 0
-246 -244 -243 0
-246 244 243 0
246 -244 243 0
246 244 -243 0
-247 235 -226 0
-247 -235 226 0
247 235 226 0
247 -235 -226 0
-248 12 0
-248 18 0
248 -12 -18 0
-249 247 0
-249 248 0
249 -247 -248 0
-250 -248 -247 0
-250 248 247 0
250 -248 247 0
250 248 -247 0
-251 -233 -230 0
-251 233 230 0
251 -233 230 0
251 233 -230 0
-252 13 0
-252 18 0
252 -13 -18 0
-253 251 0
-253 252 0
253 -251 -252 0
-254 250 0
-254 253 0
254 -250 -253 0
-255 -249 0
-255 -254 0
255 249 254 0
-256 246 0
-256 -255 0
256 -246 255 0
-257 -245 0
-257 -256 0
257 245 256 0
-258 257 -242 0
-258 -257 242 0
258 257 242 0
258 -257 -242 0
-259 11 0
-259 19 0
259 -11 -19 0
-260 -259 -258 0
-260 259 258 0
260 -259 258 0
260 259 -258 0
-261 255 -246 0
-261 -255 246 0
261 255 246 0
261 -255 -246 0
-262 12 0
-262 19 0
262 -12 -19 0
-263 261 0
-263 262 0
263 -261 -262 0
-264 -262 -261 0
-264 262 261 0
264 -262 261 0
264 262 -261 0
-265 -253 -250 0
-265 253 250 0
265 -253 250 0
265 253 -250 0
-266 13 0
-266 19 0
266 -13 -19 0
-267 265 0
-267 266 0
267 -265 -266 0
-268 264 0
-268 267 0
268 -264 -267 0
-269 -263 0
-269 -268 0
269 263 268 0
-270 269 -260 0
-270 -269 260 0
270 269 260 0
270 -269 -260 0
-271 12 0
-271 20 0
271 -12 -20 0
-272 -271 -270 0
-272 271 270 0
272 -271 270 0
272 271 -270 0
-273 -267 -264 0
-273 267 264 0
273 -267 264 0
273 267 -264 0
-274 13 0
-274 20 0
274 -13 -20 0
-275 273 0
-275 274 0
275 -273 -274 0
-276 -275 -272 0
-276 275 272 0
276 -275 272 0
276 275 -272 0
-277 13 0
-277 21 0
277 -13 -21 0
-278 -277 -276 0
-278 277 276 0
278 -277 276 0
278 277 -276 0
-279 278 -1 0
-279 -278 1 0
-280 -274 -273 0
-280 274 273 0
280 -274 273 0
280 274 -273 0
-281 280 -22 0
-281 -280 22 0
-282 279 0
-282 281 0
-283 -266 -265 0
-283 266 265 0
283 -266 265 0
283 266 -265 0
-284 283 -23 0
-284 -283 23 0
-285 282 0
-285 284 0
-286 -252 -251 0
-286 252 251 0
286 -252 251 0
286 252 -251 0
-287 286 -24 0
-287 -286 24 0
-288 285 0
-288 287 0
-289 -232 -231 0
-289 232 231 0
289 -232 231 0
289 232 -231 0
-290 289 -25 0
-290 -289 25 0
-291 288 0
-291 290 0
-292 -206 -205 0
-292 206 205 0
292 -206 205 0
292 206 -205 0
-293 292 -26 0
-293 -292 26 0
-294 291 0
-294 293 0
-295 -174 -173 0
-295 174 173 0
295 -174 173 0
295 174 -173 0
-296 295 -27 0
-296 -295 27 0
-297 294 0
-297 296 0
-298 -136 -135 0
-298 136 135 0
298 -136 135 0
298 136 -135 0
-299 298 -28 0
-299 -298 28 0
-300 297 0
-300 299 0
-301 -92 -91 0
-301 92 91 0
301 -92 91 0
301 92 -91 0
-302 301 -29 0
-302 -301 29 0
-303 300 0
-303 302 0
-304 3 0
-304 13 0
304 -3 -13 0
-305 304 -30 0
-305 -304 30 0
-306 303 0
-306 305 0
-307 13 0
-307 21 0
307 -13 -21 0
-308 12 0
-308 20 0
308 -12 -20 0
-309 -308 -307 0
-309 308 307 0
309 -308 307 0
309 308 -307 0
-310 13 0
-310 20 0
310 -13 -20 0
-311 12 0
-311 19 0
311 -12 -19 0
-312 310 0
-312 311 0
312 -310 -311 0
-313 -311 -310 0
-313 311 310 0
313 -311 310 0
313 311 -310 0
-314 13 0
-314 19 0
314 -13 -19 0
-315 12 0
-315 18 0
315 -12 -18 0
-316 314 0
-316 315 0
316 -314 -315 0
-317 -315 -314 0
-317 315 314 0
317 -315 314 0
317 315 -314 0
-318 13 0
-318 18 0
318 -13 -18 0
-319 12 0
-319 17 0
319 -12 -17 0
-320 318 0
-320 319 0
320 -318 -319 0
-321 -319 -318 0
-321 319 318 0
321 -319 318 0
321 319 -318 0
-322 13 0
-322 17 0
322 -13 -17 0
-323 12 0
-323 16 0
323 -12 -16 0
-324 322 0
-324 323 0
324 -322 -323 0
-325 -323 -322 0
-325 323 322 0
325 -323 322 0
325 323 -322 0
-326 13 0
-326 16 0
326 -13 -16 0
-327 12 0
-327 15 0
327 -12 -15 0
-328 326 0
-328 327 0
328 -326 -327 0
-329 -327 -326 0
-329 327 326 0
329 -327 326 0
329 327 -326 0
-330 13 0
-330 15 0
330 -13 -15 0
-331 12 0
-331 14 0
331 -12 -14 0
-332 330 0
-332 331 0
332 -330 -331 0
-333 -331 -330 0
-333 331 330 0
333 -331 330 0
333 331 -330 0
-334 13 0
-334 14 0
334 -13 -14 0
-335 5 0
-335 12 0
335 -5 -12 0
-336 334 0
-336 335 0
336 -334 -335 0
-337 -335 -334 0
-337 335 334 0
337 -335 334 0
337 335 -334 0
-338 5 0
-338 13 0
338 -5 -13 0
-339 3 0
-339 12 0
339 -3 -12 0
-340 338 0
-340 339 0
340 -338 -339 0
-341 337 0
-341 340 0
341 -337 -340 0
-342 -336 0
-342 -341 0
342 336 341 0
-343 333 0
-343 -342 0
343 -333 342 0
-344 -332 0
-344 -343 0
344 332 343 0
-345 329 0
-345 -344 0
345 -329 344 0
-346 -328 0
-346 -345 0
346 328 345 0
-347 325 0
-347 -346 0
347 -325 346 0
-348 -324 0
-348 -347 0
348 324 347 0
-349 321 0
-349 -348 0
349 -321 348 0
-350 -320 0
-350 -349 0
350 320 349 0
-351 317 0
-351 -350 0
351 -317 350 0
-352 -316 0
-352 -351 0
352 316 351 0
-353 313 0
-353 -352 0
353 -313 352 0
-354 -312 0
-354 -353 0
354 312 353 0
-355 354 -309 0
-355 -354 309 0
355 354 309 0
355 -354 -309 0
-356 11 0
-356 19 0
356 -11 -19 0
-357 -356 -355 0
-357 356 355 0
357 -356 355 0
357 356 -355 0
-358 352 -313 0
-358 -352 313 0
358 352 313 0
358 -352 -313 0
-359 11 0
-359 18 0
359 -11 -18 0
-360 358 0
-360 359 0
360 -358 -359 0
-361 -359 -358 0
-361 359 358 0
361 -359 358 0
361 359 -358 0
-362 350 -317 0
-362 -350 317 0
362 350 317 0
362 -350 -317 0
-363 11 0
-363 17 0
363 -11 -17 0
-364 362 0
-364 363 0
364 -362 -363 0
-365 -363 -362 0
-365 363 362 0
365 -363 362 0
365 363 -362 0
-366 348 -321 0
-366 -348 321 0
366 348 321 0
366 -348 -321 0
-367 11 0
-367 16 0
367 -11 -16 0
-368 366 0
-368 367 0
368 -366 -367 0
-369 -367 -366 0
-369 367 366 0
369 -367 366 0
369 367 -366 0
-370 346 -325 0
-370 -346 325 0
370 346 325 0
370 -346 -325 0
-371 11 0
-371 15 0
371 -11 -15 0
-372 370 0
-372 371 0
372 -370 -371 0
-373 -371 -370 0
-373 371 370 0
373 -371 370 0
373 371 -370 0
-374 344 -329 0
-374 -344 329 0
374 344 329 0
374 -344 -329 0
-375 11 0
-375 14 0
375 -11 -14 0
-376 374 0
-376 375 0
376 -374 -375 0
-377 -375 -374 0
-377 375 374 0
377 -375 374 0
377 375 -374 0
-378 342 -333 0
-378 -342 333 0
378 342 333 0
378 -342 -333 0
-379 5 0
-379 11 0
379 -5 -11 0
-380 378 0
-380 379 0
380 -378 -379 0
-381 -379 -378 0
-381 379 378 0
381 -379 378 0
381 379 -378 0
-382 -340 -337 0
-382 340 337 0
382 -340 337 0
382 340 -337 0
-383 3 0
-383 11 0
383 -3 -11 0
-384 382 0
-384 383 0
384 -382 -383 0
-385 381 0
-385 384 0
385 -381 -384 0
-386 -380 0
-386 -385 0
386 380 385 0
-387 377 0
-387 -386 0
387 -377 386 0
-388 -376 0
-388 -387 0
388 376 387 0
-389 373 0
-389 -388 0
389 -373 388 0
-390 -372 0
-390 -389 0
390 372 389 0
-391 369 0
-391 -390 0
391 -369 390 0
-392 -368 0
-392 -391 0
392 368 391 0
-393 365 0
-393 -392 0
393 -365 392 0
-394 -364 0
-394 -393 0
394 364 393 0
-395 361 0
-395 -394 0
395 -361 394 0
-396 -360 0
-396 -395 0
396 360 395 0
-397 396 -357 0
-397 -396 357 0
397 396 357 0
397 -396 -357 0
-398 10 0
-398 18 0
398 -10 -18 0
-399 -398 -397 0
-399 398 397 0
399 -398 397 0
399 398 -397 0
-400 394 -361 0
-400 -394 361 0
400 394 361 0
400 -394 -361 0
-401 10 0
-401 17 0
401 -10 -17 0
-402 400 0
-402 401 0
402 -400 -401 0
-403 -401 -400 0
-403 401 400 0
403 -401 400 0
403 401 -400 0
-404 392 -365 0
-404 -392 365 0
404 392 365 0
404 -392 -365 0
-405 10 0
-405 16 0
405 -10 -16 0
-406 404 0
-406 405 0
406 -404 -405 0
-407 -405 -404 0
-407 405 404 0
407 -405 404 0
407 405 -404 0
-408 390 -369 0
-408 -390 369 0
408 390 369 0
408 -390 -369 0
-409 10 0
-409 15 0
409 -10 -15 0
-410 408 0
-410 409 0
410 -408 -409 0
-411 -409 -408 0
-411 409 408 0
411 -409 408 0
411 409 -408 0
-412 388 -373 0
-412 -388 373 0
412 388 373 0
412 -388 -373 0
-413 10 0
-413 14 0
413 -10 -14 0
-414 412 0
-414 413 0
414 -412 -413 0
-415 -413 -412 0
-415 413 412 0
415 -413 412 0
415 413 -412 0
-416 386 -377 0
-416 -386 377 0
416 386 377 0
416 -386 -377 0
-417 5 0
-417 10 0
417 -5 -10 0
-418 416 0
-418 417 0
418 -416 -417 0
-419 -417 -416 0
-419 417 416 0
419 -417 416 0
419 417 -416 0
-420 -384 -381 0
-420 384 381 0
420 -384 381 0
420 384 -381 0
-421 3 0
-421 10 0
421 -3 -10 0
-422 420 0
-422 421 0
422 -420 -421 0
-423 419 0
-423 422 0
423 -419 -422 0
-424 -418 0
-424 -423 0
424 418 423 0
-425 415 0
-425 -424 0
425 -415 424 0
-426 -414 0
-426 -425 0
426 414 425 0
-427 411 0
-427 -426 0
427 -411 426 0
-428 -410 0
-428 -427 0
428 410 427 0
-429 407 0
-429 -428 0
429 -407 428 0
-430 -406 0
-430 -429 0
430 406 429 0
-431 403 0
-431 -430 0
431 -403 430 0
-432 -402 0
-432 -431 0
432 402 431 0
-433 432 -399 0
-433 -432 399 0
433 432 399 0
433 -432 -399 0
-434 9 0
-434 17 0
434 -9 -17 0
-435 -434 -433 0
-435 434 433 0
435 -434 433 0
435 434 -433 0
-436 430 -403 0
-436 -430 403 0
436 430 403 0
436 -430 -403 0
-437 9 0
-437 16 0
437 -9 -16 0
-438 436 0
-438 437 0
438 -436 -437 0
-439 -437 -436 0
-439 437 436 0
439 -437 436 0
439 437 -436 0
-440 428 -407 0
-440 -428 407 0
440 428 407 0
440 -428 -407 0
-441 9 0
-441 15 0
441 -9 -15 0
-442 440 0
-442 441 0
442 -440 -441 0
-443 -441 -440 0
-443 441 440 0
443 -441 440 0
443 441 -440 0
-444 426 -411 0
-444 -426 411 0
444 426 411 0
444 -426 -411 0
-445 9 0
-445 14 0
445 -9 -14 0
-446 444 0
-446 445 0
446 -444 -445 0
-447 -445 -444 0
-447 445 444 0
447 -445 444 0
447 445 -444 0
-448 424 -415 0
-448 -424 415 0
448 424 415 0
448 -424 -415 0
-449 5 0
-449 9 0
449 -5 -9 0
-450 448 0
-450 449 0
450 -448 -449 0
-451 -449 -448 0
-451 449 448 0
451 -449 448 0
451 449 -448 0
-452 -422 -419 0
-452 422 419 0
452 -422 419 0
452 422 -419 0
-453 3 0
-453 9 0
453 -3 -9 0
-454 452 0
-454 453 0
454 -452 -453 0
-455 451 0
-455 454 0
455 -451 -454 0
-456 -450 0
-456 -455 0
456 450 455 0
-457 447 0
-457 -456 0
457 -447 456 0
-458 -446 0
-458 -457 0
458 446 457 0
-459 443 0
-459 -458 0
459 -443 458 0
-460 -442 0
-460 -459 0
460 442 459 0
-461 439 0
-461 -460 0
461 -439 460 0
-462 -438 0
-462 -461 0
462 438 461 0
-463 462 -435 0
-463 -462 435 0
463 462 435 0
463 -462 -435 0
-464 8 0
-464 16 0
464 -8 -16 0
-465 -464 -463 0
-465 464 463 0
465 -464 463 0
465 464 -463 0
-466 460 -439 0
-466 -460 439 0
466 460 439 0
466 -460 -439 0
-467 8 0
-467 15 0
467 -8 -15 0
-468 466 0
-468 467 0
468 -466 -467 0
-469 -467 -466 0
-469 467 466 0
469 -467 466 0
469 467 -466 0
-470 458 -443 0
-470 -458 443 0
470 458 443 0
470 -458 -443 0
-471 8 0
-471 14 0
471 -8 -14 0
-472 470 0
-472 471 0
472 -470 -471 0
-473 -471 -470 0
-473 471 470 0
473 -471 470 0
473 471 -470 0
-474 456 -447 0
-474 -456 447 0
474 456 447 0
474 -456 -447 0
-475 5 0
-475 8 0
475 -5 -8 0
-476 474 0
-476 475 0
476 -474 -475 0
-477 -475 -474 0
-477 475 474 0
477 -475 474 0
477 475 -474 0
-478 -454 -451 0
-478 454 451 0
478 -454 451 0
478 454 -451 0
-479 3 0
-479 8 0
479 -3 -8 0
-480 478 0
-480 479 0
480 -478 -479 0
-481 477 0
-481 480 0
481 -477 -480 0
-482 -476 0
-482 -481 0
482 476 481 0
-483 473 0
-483 -482 0
483 -473 482 0
-484 -472 0
-484 -483 0
484 472 483 0
-485 469 0
-485 -484 0
485 -469 484 0
-486 -468 0
-486 -485 0
486 468 485 0
-487 486 -465 0
-487 -486 465 0
487 486 465 0
487 -486 -465 0
-488 7 0
-488 15 0
488 -7 -15 0
-489 -488 -487 0
-489 488 487 0
489 -488 487 0
489 488 -487 0
-490 484 -469 0
-490 -484 469 0
490 484 469 0
490 -484 -469 0
-491 7 0
-491 14 0
491 -7 -14 0
-492 490 0
-492 491 0
492 -490 -491 0
-493 -491 -490 0
-493 491 490 0
493 -491 490 0
493 491 -490 0
-494 482 -473 0
-494 -482 473 0
494 482 473 0
494 -482 -473 0
-495 5 0
-495 7 0
495 -5 -7 0
-496 494 0
-496 495 0
496 -494 -495 0
-497 -495 -494 0
-497 495 494 0
497 -495 494 0
497 495 -494 0
-498 -480 -477 0
-498 480 477 0
498 -480 477 0
498 480 -477 0
-499 3 0
-499 7 0
499 -3 -7 0
-500 498 0
-500 499 0
500 -498 -499 0
-501 497 0
-501 500 0
501 -497 -500 0
-502 -496 0
-502 -501 0
502 496 501 0
-503 493 0
-503 -502 0
503 -493 502 0
-504 -492 0
-504 -503 0
504 492 503 0
-505 504 -489 0
-505 -504 489 0
505 504 489 0
505 -504 -489 0
-506 6 0
-506 14 0
506 -6 -14 0
-507 -506 -505 0
-507 506 505 0
507 -506 505 0
507 506 -505 0
-508 502 -493 0
-508 -502 493 0
508 502 493 0
508 -502 -493 0
-509 5 0
-509 6 0
509 -5 -6 0
-510 508 0
-510 509 0
510 -508 -509 0
-511 -509 -508 0
-511 509 508 0
511 -509 508 0
511 509 -508 0
-512 -500 -497 0
-512 500 497 0
512 -500 497 0
512 500 -497 0
-513 3 0
-513 6 0
513 -3 -6 0
-514 512 0
-514 513 0
514 -512 -513 0
-515 511 0
-515 514 0
515 -511 -514 0
-516 -510 0
-516 -515 0
516 510 515 0
-517 516 -507 0
-517 -516 507 0
517 516 507 0
517 -516 -507 0
-518 4 0
-518 5 0
518 -4 -5 0
-519 -518 -517 0
-519 518 517 0
519 -518 517 0
519 518 -517 0
-520 -514 -511 0
-520 514 511 0
520 -514 511 0
520 514 -511 0
-521 3 0
-521 4 0
521 -3 -4 0
-522 520 0
-522 521 0
522 -520 -521 0
-523 -522 -519 0
-523 522 519 0
523 -522 519 0
523 522 -519 0
-524 2 0
-524 3 0
524 -2 -3 0
-525 -524 -523 0
-525 524 523 0
525 -524 523 0
525 524 -523 0
-526 525 -31 0
-526 -525 31 0
-527 -521 -520 0
-527 521 520 0
527 -521 520 0
527 521 -520 0
-528 527 -32 0
-528 -527 32 0
-529 526 0
-529 528 0
-530 -513 -512 0
-530 513 512 0
530 -513 512 0
530 513 -512 0
-531 530 -33 0
-531 -530 33 0
-532 529 0
-532 531 0
-533 -499 -498 0
-533 499 498 0
533 -499 498 0
533 499 -498 0
-534 533 -34 0
-534 -533 34 0
-535 532 0
-535 534 0
-536 -479 -478 0
-536 479 478 0
536 -479 478 0
536 479 -478 0
-537 536 -35 0
-537 -536 35 0
-538 535 0
-538 537 0
-539 -453 -452 0
-539 453 452 0
539 -453 452 0
539 453 -452 0
-540 539 -36 0
-540 -539 36 0
-541 538 0
-541 540 0
-542 -421 -420 0
-542 421 420 0
542 -421 420 0
542 421 -420 0
-543 542 -37 0
-543 -542 37 0
-544 541 0
-544 543 0
-545 -383 -382 0
-545 383 382 0
545 -383 382 0
545 383 -382 0
-546 545 -38 0
-546 -545 38 0
-547 544 0
-547 546 0
-548 -339 -338 0
-548 339 338 0
548 -339 338 0
548 339 -338 0
-549 548 -39 0
-549 -548 39 0
-550 547 0
-550 549 0
-551 3 0
-551 13 0
551 -3 -13 0
-552 551 -40 0
-552 -551 40 0
-553 550 0
-553 552 0
-554 306 0
-554 553 0
-555 -59 0
-555 554 0
555 0
