p cnf 211 616
-16 10 0
-16 15 0
16 -10 -15 0
-17 1 0
-17 16 0
17 -1 -16 0
-18 9 0
-18 15 0
18 -9 -15 0
-19 10 0
-19 14 0
19 -10 -14 0
-20 18 0
-20 19 0
20 -18 -19 0
-21 -19 -18 0
-21 19 18 0
21 -19 18 0
21 19 -18 0
-22 2 0
-22 21 0
22 -2 -21 0
-23 -22 -17 0
-23 22 17 0
23 -22 17 0
23 22 -17 0
-24 2 0
-24 16 0
24 -2 -16 0
-25 3 0
-25 21 0
25 -3 -21 0
-26 24 0
-26 25 0
26 -24 -25 0
-27 -25 -24 0
-27 25 24 0
27 -25 24 0
27 25 -24 0
-28 3 0
-28 16 0
28 -3 -16 0
-29 4 0
-29 21 0
29 -4 -21 0
-30 28 0
-30 29 0
30 -28 -29 0
-31 -29 -28 0
-31 29 28 0
31 -29 28 0
31 29 -28 0
-32 4 0
-32 16 0
32 -4 -16 0
-33 5 0
-33 21 0
33 -5 -21 0
-34 32 0
-34 33 0
34 -32 -33 0
-35 31 0
-35 34 0
35 -31 -34 0
-36 -30 0
-36 -35 0
36 30 35 0
-37 27 0
-37 -36 0
37 -27 36 0
-38 -26 0
-38 -37 0
38 26 37 0
-39 38 -23 0
-39 -38 23 0
39 38 23 0
39 -38 -23 0
-40 8 0
-40 15 0
40 -8 -15 0
-41 9 0
-41 14 0
41 -9 -14 0
-42 40 0
-42 41 0
42 -40 -41 0
-43 -41 -40 0
-43 41 40 0
43 -41 40 0
43 41 -40 0
-44 20 0
-44 43 0
44 -20 -43 0
-45 -43 -20 0
-45 43 20 0
45 -43 20 0
45 43 -20 0
-46 10 0
-46 13 0
46 -10 -13 0
-47 45 0
-47 46 0
47 -45 -46 0
-48 -46 -45 0
-48 46 45 0
48 -46 45 0
48 46 -45 0
-49 3 0
-49 48 0
49 -3 -48 0
-50 -49 -39 0
-50 49 39 0
50 -49 39 0
50 49 -39 0
-51 36 -27 0
-51 -36 27 0
51 36 27 0
51 -36 -27 0
-52 4 0
-52 48 0
52 -4 -48 0
-53 51 0
-53 52 0
53 -51 -52 0
-54 -52 -51 0
-54 52 51 0
54 -52 51 0
54 52 -51 0
-55 -34 -31 0
-55 34 31 0
55 -34 31 0
55 34 -31 0
-56 5 0
-56 48 0
56 -5 -48 0
-57 55 0
-57 56 0
57 -55 -56 0
-58 54 0
-58 57 0
58 -54 -57 0
-59 -53 0
-59 -58 0
59 53 58 0
-60 59 -50 0
-60 -59 50 0
60 59 50 0
60 -59 -50 0
-61 7 0
-61 15 0
61 -7 -15 0
-62 8 0
-62 14 0
62 -8 -14 0
-63 61 0
-63 62 0
63 -61 -62 0
-64 -62 -61 0
-64 62 61 0
64 -62 61 0
64 62 -61 0
-65 -42 0
-65 -44 0
65 42 44 0
-66 64 0
-66 -65 0
66 -64 65 0
-67 65 -64 0
-67 -65 64 0
67 65 64 0
67 -65 -64 0
-68 9 0
-68 13 0
68 -9 -13 0
-69 67 0
-69 68 0
69 -67 -68 0
-70 -68 -67 0
-70 68 67 0
70 -68 67 0
70 68 -67 0
-71 47 0
-71 70 0
71 -47 -70 0
-72 -70 -47 0
-72 70 47 0
72 -70 47 0
72 70 -47 0
-73 10 0
-73 12 0
73 -10 -12 0
-74 72 0
-74 73 0
74 -72 -73 0
-75 -73 -72 0
-75 73 72 0
75 -73 72 0
75 73 -72 0
-76 4 0
-76 75 0
76 -4 -75 0
-77 -76 -60 0
-77 76 60 0
77 -76 60 0
77 76 -60 0
-78 -57 -54 0
-78 57 54 0
78 -57 54 0
78 57 -54 0
-79 5 0
-79 75 0
79 -5 -75 0
-80 78 0
-80 79 0
80 -78 -79 0
-81 -80 -77 0
-81 80 77 0
81 -80 77 0
81 80 -77 0
-82 6 0
-82 15 0
82 -6 -15 0
-83 7 0
-83 14 0
83 -7 -14 0
-84 -83 -82 0
-84 83 82 0
84 -83 82 0
84 83 -82 0
-85 -63 0
-85 -66 0
85 63 66 0
-86 85 -84 0
-86 -85 84 0
86 85 84 0
86 -85 -84 0
-87 8 0
-87 13 0
87 -8 -13 0
-88 -87 -86 0
-88 87 86 0
88 -87 86 0
88 87 -86 0
-89 -69 0
-89 -71 0
89 69 71 0
-90 89 -88 0
-90 -89 88 0
90 89 88 0
90 -89 -88 0
-91 9 0
-91 12 0
91 -9 -12 0
-92 -91 -90 0
-92 91 90 0
92 -91 90 0
92 91 -90 0
-93 -92 -74 0
-93 92 74 0
93 -92 74 0
93 92 -74 0
-94 10 0
-94 11 0
94 -10 -11 0
-95 -94 -93 0
-95 94 93 0
95 -94 93 0
95 94 -93 0
-96 5 0
-96 95 0
96 -5 -95 0
-97 -96 -81 0
-97 96 81 0
97 -96 81 0
97 96 -81 0
-98 1 0
-98 10 0
98 -1 -10 0
-99 2 0
-99 9 0
99 -2 -9 0
-100 -99 -98 0
-100 99 98 0
100 -99 98 0
100 99 -98 0
-101 2 0
-101 10 0
101 -2 -10 0
-102 3 0
-102 9 0
102 -3 -9 0
-103 101 0
-103 102 0
103 -101 -102 0
-104 -102 -101 0
-104 102 101 0
104 -102 101 0
104 102 -101 0
-105 3 0
-105 10 0
105 -3 -10 0
-106 4 0
-106 9 0
106 -4 -9 0
-107 105 0
-107 106 0
107 -105 -106 0
-108 -106 -105 0
-108 106 105 0
108 -106 105 0
108 106 -105 0
-109 4 0
-109 10 0
109 -4 -10 0
-110 5 0
-110 9 0
110 -5 -9 0
-111 109 0
-111 110 0
111 -109 -110 0
-112 108 0
-112 111 0
112 -108 -111 0
-113 -107 0
-113 -112 0
113 107 112 0
-114 104 0
-114 -113 0
114 -104 113 0
-115 -103 0
-115 -114 0
115 103 114 0
-116 115 -100 0
-116 -115 100 0
116 115 100 0
116 -115 -100 0
-117 3 0
-117 8 0
117 -3 -8 0
-118 -117 -116 0
-118 117 116 0
118 -117 116 0
118 117 -116 0
-119 113 -104 0
-119 -113 104 0
119 113 104 0
119 -113 -104 0
-120 4 0
-120 8 0
120 -4 -8 0
-121 119 0
-121 120 0
121 -119 -120 0
-122 -120 -119 0
-122 120 119 0
122 -120 119 0
122 120 -119 0
-123 -111 -108 0
-123 111 108 0
123 -111 108 0
123 111 -108 0
-124 5 0
-124 8 0
124 -5 -8 0
-125 123 0
-125 124 0
125 -123 -124 0
-126 122 0
-126 125 0
126 -122 -125 0
-127 -121 0
-127 -126 0
127 121 126 0
-128 127 -118 0
-128 -127 118 0
128 127 118 0
128 -127 -118 0
-129 4 0
-129 7 0
129 -4 -7 0
-130 -129 -128 0
-130 129 128 0
130 -129 128 0
130 129 -128 0
-131 -125 -122 0
-131 125 122 0
131 -125 122 0
131 125 -122 0
-132 5 0
-132 7 0
132 -5 -7 0
-133 131 0
-133 132 0
133 -131 -132 0
-134 -133 -130 0
-134 133 130 0
134 -133 130 0
134 133 -130 0
-135 5 0
-135 6 0
135 -5 -6 0
-136 -135 -134 0
-136 135 134 0
136 -135 134 0
136 135 -134 0
-137 15 0
-137 136 0
137 -15 -136 0
-138 -132 -131 0
-138 132 131 0
138 -132 131 0
138 132 -131 0
-139 14 0
-139 138 0
139 -14 -138 0
-140 -139 -137 0
-140 139 137 0
140 -139 137 0
140 139 -137 0
-141 15 0
-141 138 0
141 -15 -138 0
-142 -124 -123 0
-142 124 123 0
142 -124 123 0
142 124 -123 0
-143 14 0
-143 142 0
143 -14 -142 0
-144 141 0
-144 143 0
144 -141 -143 0
-145 -143 -141 0
-145 143 141 0
145 -143 141 0
145 143 -141 0
-146 15 0
-146 142 0
146 -15 -142 0
-147 -110 -109 0
-147 110 109 0
147 -110 109 0
147 110 -109 0
-148 14 0
-148 147 0
148 -14 -147 0
-149 146 0
-149 148 0
149 -146 -148 0
-150 -148 -146 0
-150 148 146 0
150 -148 146 0
150 148 -146 0
-151 15 0
-151 147 0
151 -15 -147 0
-152 5 0
-152 10 0
152 -5 -10 0
-153 14 0
-153 152 0
153 -14 -152 0
-154 151 0
-154 153 0
154 -151 -153 0
-155 150 0
-155 154 0
155 -150 -154 0
-156 -149 0
-156 -155 0
156 149 155 0
-157 145 0
-157 -156 0
157 -145 156 0
-158 -144 0
-158 -157 0
158 144 157 0
-159 158 -140 0
-159 -158 140 0
159 158 140 0
159 -158 -140 0
-160 13 0
-160 142 0
160 -13 -142 0
-161 -160 -159 0
-161 160 159 0
161 -160 159 0
161 160 -159 0
-162 156 -145 0
-162 -156 145 0
162 156 145 0
162 -156 -145 0
-163 13 0
-163 147 0
163 -13 -147 0
-164 162 0
-164 163 0
164 -162 -163 0
-165 -163 -162 0
-165 163 162 0
165 -163 162 0
165 163 -162 0
-166 -154 -150 0
-166 154 150 0
166 -154 150 0
166 154 -150 0
-167 13 0
-167 152 0
167 -13 -152 0
-168 166 0
-168 167 0
168 -166 -167 0
-169 165 0
-169 168 0
169 -165 -168 0
-170 -164 0
-170 -169 0
170 164 169 0
-171 170 -161 0
-171 -170 161 0
171 170 161 0
171 -170 -161 0
-172 12 0
-172 147 0
172 -12 -147 0
-173 -172 -171 0
-173 172 171 0
173 -172 171 0
173 172 -171 0
-174 -168 -165 0
-174 168 165 0
174 -168 165 0
174 168 -165 0
-175 12 0
-175 152 0
175 -12 -152 0
-176 174 0
-176 175 0
176 -174 -175 0
-177 -176 -173 0
-177 176 173 0
177 -176 173 0
177 176 -173 0
-178 11 0
-178 152 0
178 -11 -152 0
-179 -178 -177 0
-179 178 177 0
179 -178 177 0
179 178 -177 0
180 179 97 0
180 -179 -97 0
-181 -79 -78 0
-181 79 78 0
181 -79 78 0
181 79 -78 0
-182 -175 -174 0
-182 175 174 0
182 -175 174 0
182 175 -174 0
183 182 181 0
183 -182 -181 0
184 -180 -183 0
-185 -56 -55 0
-185 56 55 0
185 -56 55 0
185 56 -55 0
-186 -167 -166 0
-186 167 166 0
186 -167 166 0
186 167 -166 0
187 186 185 0
187 -186 -185 0
188 -184 -187 0
-189 -33 -32 0
-189 33 32 0
189 -33 32 0
189 33 -32 0
-190 -153 -151 0
-190 153 151 0
190 -153 151 0
190 153 -151 0
191 190 189 0
191 -190 -189 0
192 -188 -191 0
-193 5 0
-193 16 0
193 -5 -16 0
-194 15 0
-194 152 0
194 -15 -152 0
195 194 193 0
195 -194 -193 0
196 -192 -195 0
197 -14 -15 0
198 -13 -197 0
-199 -12 0
-199 -198 0
200 -11 199 0
201 -4 -5 0
202 -3 -201 0
-203 -2 0
-203 -202 0
204 -1 203 0
205 -9 -10 0
206 -8 -205 0
-207 -7 0
-207 -206 0
208 -6 207 0
-209 -204 0
-209 -208 0
-210 -200 0
-210 209 0
-211 -196 0
-211 210 0
211 0
