p cnf 1741 5595
-40 34 0
-40 35 0
40 -34 -35 0
-41 1 0
-41 40 0
41 -1 -40 0
-42 35 0
-42 36 0
42 -35 -36 0
-43 34 0
-43 37 0
43 -34 -37 0
-44 42 0
-44 43 0
44 -42 -43 0
-45 -43 -42 0
-45 43 42 0
45 -43 42 0
45 43 -42 0
-46 2 0
-46 45 0
46 -2 -45 0
-47 -46 -41 0
-47 46 41 0
47 -46 41 0
47 46 -41 0
-48 2 0
-48 40 0
48 -2 -40 0
-49 3 0
-49 45 0
49 -3 -45 0
-50 48 0
-50 49 0
50 -48 -49 0
-51 -49 -48 0
-51 49 48 0
51 -49 48 0
51 49 -48 0
-52 3 0
-52 40 0
52 -3 -40 0
-53 4 0
-53 45 0
53 -4 -45 0
-54 52 0
-54 53 0
54 -52 -53 0
-55 -53 -52 0
-55 53 52 0
55 -53 52 0
55 53 -52 0
-56 4 0
-56 40 0
56 -4 -40 0
-57 5 0
-57 45 0
57 -5 -45 0
-58 56 0
-58 57 0
58 -56 -57 0
-59 -57 -56 0
-59 57 56 0
59 -57 56 0
59 57 -56 0
-60 5 0
-60 40 0
60 -5 -40 0
-61 6 0
-61 45 0
61 -6 -45 0
-62 60 0
-62 61 0
62 -60 -61 0
-63 -61 -60 0
-63 61 60 0
63 -61 60 0
63 61 -60 0
-64 6 0
-64 40 0
64 -6 -40 0
-65 7 0
-65 45 0
65 -7 -45 0
-66 64 0
-66 65 0
66 -64 -65 0
-67 -65 -64 0
-67 65 64 0
67 -65 64 0
67 65 -64 0
-68 7 0
-68 40 0
68 -7 -40 0
-69 8 0
-69 45 0
69 -8 -45 0
-70 68 0
-70 69 0
70 -68 -69 0
-71 -69 -68 0
-71 69 68 0
71 -69 68 0
71 69 -68 0
-72 8 0
-72 40 0
72 -8 -40 0
-73 9 0
-73 45 0
73 -9 -45 0
-74 72 0
-74 73 0
74 -72 -73 0
-75 -73 -72 0
-75 73 72 0
75 -73 72 0
75 73 -72 0
-76 9 0
-76 40 0
76 -9 -40 0
-77 10 0
-77 45 0
77 -10 -45 0
-78 76 0
-78 77 0
78 -76 -77 0
-79 -77 -76 0
-79 77 76 0
79 -77 76 0
79 77 -76 0
-80 10 0
-80 40 0
80 -10 -40 0
-81 11 0
-81 45 0
81 -11 -45 0
-82 80 0
-82 81 0
82 -80 -81 0
-83 -81 -80 0
-83 81 80 0
83 -81 80 0
83 81 -80 0
-84 11 0
-84 40 0
84 -11 -40 0
-85 38 0
-85 45 0
85 -38 -45 0
-86 84 0
-86 85 0
86 -84 -85 0
-87 -85 -84 0
-87 85 84 0
87 -85 84 0
87 85 -84 0
-88 38 0
-88 40 0
88 -38 -40 0
-89 39 0
-89 45 0
89 -39 -45 0
-90 88 0
-90 89 0
90 -88 -89 0
-91 87 0
-91 90 0
91 -87 -90 0
-92 -86 0
-92 -91 0
92 86 91 0
-93 83 0
-93 -92 0
93 -83 92 0
-94 -82 0
-94 -93 0
94 82 93 0
-95 79 0
-95 -94 0
95 -79 94 0
-96 -78 0
-96 -95 0
96 78 95 0
-97 75 0
-97 -96 0
97 -75 96 0
-98 -74 0
-98 -97 0
98 74 97 0
-99 71 0
-99 -98 0
99 -71 98 0
-100 -70 0
-100 -99 0
100 70 99 0
-101 67 0
-101 -100 0
101 -67 100 0
-102 -66 0
-102 -101 0
102 66 101 0
-103 63 0
-103 -102 0
103 -63 102 0
-104 -62 0
-104 -103 0
104 62 103 0
-105 59 0
-105 -104 0
105 -59 104 0
-106 -58 0
-106 -105 0
106 58 105 0
-107 55 0
-107 -106 0
107 -55 106 0
-108 -54 0
-108 -107 0
108 54 107 0
-109 51 0
-109 -108 0
109 -51 108 0
-110 -50 0
-110 -109 0
110 50 109 0
-111 110 -47 0
-111 -110 47 0
111 110 47 0
111 -110 -47 0
-112 22 0
-112 35 0
112 -22 -35 0
-113 36 0
-113 37 0
113 -36 -37 0
-114 112 0
-114 113 0
114 -112 -113 0
-115 -113 -112 0
-115 113 112 0
115 -113 112 0
115 113 -112 0
-116 44 0
-116 115 0
116 -44 -115 0
-117 -115 -44 0
-117 115 44 0
117 -115 44 0
117 115 -44 0
-118 33 0
-118 34 0
118 -33 -34 0
-119 117 0
-119 118 0
119 -117 -118 0
-120 -118 -117 0
-120 118 117 0
120 -118 117 0
120 118 -117 0
-121 3 0
-121 120 0
121 -3 -120 0
-122 -121 -111 0
-122 121 111 0
122 -121 111 0
122 121 -111 0
-123 108 -51 0
-123 -108 51 0
123 108 51 0
123 -108 -51 0
-124 4 0
-124 120 0
124 -4 -120 0
-125 123 0
-125 124 0
125 -123 -124 0
-126 -124 -123 0
-126 124 123 0
126 -124 123 0
126 124 -123 0
-127 106 -55 0
-127 -106 55 0
127 106 55 0
127 -106 -55 0
-128 5 0
-128 120 0
128 -5 -120 0
-129 127 0
-129 128 0
129 -127 -128 0
-130 -128 -127 0
-130 128 127 0
130 -128 127 0
130 128 -127 0
-131 104 -59 0
-131 -104 59 0
131 104 59 0
131 -104 -59 0
-132 6 0
-132 120 0
132 -6 -120 0
-133 131 0
-133 132 0
133 -131 -132 0
-134 -132 -131 0
-134 132 131 0
134 -132 131 0
134 132 -131 0
-135 102 -63 0
-135 -102 63 0
135 102 63 0
135 -102 -63 0
-136 7 0
-136 120 0
136 -7 -120 0
-137 135 0
-137 136 0
137 -135 -136 0
-138 -136 -135 0
-138 136 135 0
138 -136 135 0
138 136 -135 0
-139 100 -67 0
-139 -100 67 0
139 100 67 0
139 -100 -67 0
-140 8 0
-140 120 0
140 -8 -120 0
-141 139 0
-141 140 0
141 -139 -140 0
-142 -140 -139 0
-142 140 139 0
142 -140 139 0
142 140 -139 0
-143 98 -71 0
-143 -98 71 0
143 98 71 0
143 -98 -71 0
-144 9 0
-144 120 0
144 -9 -120 0
-145 143 0
-145 144 0
145 -143 -144 0
-146 -144 -143 0
-146 144 143 0
146 -144 143 0
146 144 -143 0
-147 96 -75 0
-147 -96 75 0
147 96 75 0
147 -96 -75 0
-148 10 0
-148 120 0
148 -10 -120 0
-149 147 0
-149 148 0
149 -147 -148 0
-150 -148 -147 0
-150 148 147 0
150 -148 147 0
150 148 -147 0
-151 94 -79 0
-151 -94 79 0
151 94 79 0
151 -94 -79 0
-152 11 0
-152 120 0
152 -11 -120 0
-153 151 0
-153 152 0
153 -151 -152 0
-154 -152 -151 0
-154 152 151 0
154 -152 151 0
154 152 -151 0
-155 92 -83 0
-155 -92 83 0
155 92 83 0
155 -92 -83 0
-156 38 0
-156 120 0
156 -38 -120 0
-157 155 0
-157 156 0
157 -155 -156 0
-158 -156 -155 0
-158 156 155 0
158 -156 155 0
158 156 -155 0
-159 -90 -87 0
-159 90 87 0
159 -90 87 0
159 90 -87 0
-160 39 0
-160 120 0
160 -39 -120 0
-161 159 0
-161 160 0
161 -159 -160 0
-162 158 0
-162 161 0
162 -158 -161 0
-163 -157 0
-163 -162 0
163 157 162 0
-164 154 0
-164 -163 0
164 -154 163 0
-165 -153 0
-165 -164 0
165 153 164 0
-166 150 0
-166 -165 0
166 -150 165 0
-167 -149 0
-167 -166 0
167 149 166 0
-168 146 0
-168 -167 0
168 -146 167 0
-169 -145 0
-169 -168 0
169 145 168 0
-170 142 0
-170 -169 0
170 -142 169 0
-171 -141 0
-171 -170 0
171 141 170 0
-172 138 0
-172 -171 0
172 -138 171 0
-173 -137 0
-173 -172 0
173 137 172 0
-174 134 0
-174 -173 0
174 -134 173 0
-175 -133 0
-175 -174 0
175 133 174 0
-176 130 0
-176 -175 0
176 -130 175 0
-177 -129 0
-177 -176 0
177 129 176 0
-178 126 0
-178 -177 0
178 -126 177 0
-179 -125 0
-179 -178 0
179 125 178 0
-180 179 -122 0
-180 -179 122 0
180 179 122 0
180 -179 -122 0
-181 21 0
-181 35 0
181 -21 -35 0
-182 22 0
-182 37 0
182 -22 -37 0
-183 181 0
-183 182 0
183 -181 -182 0
-184 -182 -181 0
-184 182 181 0
184 -182 181 0
184 182 -181 0
-185 -114 0
-185 -116 0
185 114 116 0
-186 184 0
-186 -185 0
186 -184 185 0
-187 185 -184 0
-187 -185 184 0
187 185 184 0
187 -185 -184 0
-188 33 0
-188 36 0
188 -33 -36 0
-189 187 0
-189 188 0
189 -187 -188 0
-190 -188 -187 0
-190 188 187 0
190 -188 187 0
190 188 -187 0
-191 119 0
-191 190 0
191 -119 -190 0
-192 -190 -119 0
-192 190 119 0
192 -190 119 0
192 190 -119 0
-193 32 0
-193 34 0
193 -32 -34 0
-194 192 0
-194 193 0
194 -192 -193 0
-195 -193 -192 0
-195 193 192 0
195 -193 192 0
195 193 -192 0
-196 4 0
-196 195 0
196 -4 -195 0
-197 -196 -180 0
-197 196 180 0
197 -196 180 0
197 196 -180 0
-198 177 -126 0
-198 -177 126 0
198 177 126 0
198 -177 -126 0
-199 5 0
-199 195 0
199 -5 -195 0
-200 198 0
-200 199 0
200 -198 -199 0
-201 -199 -198 0
-201 199 198 0
201 -199 198 0
201 199 -198 0
-202 175 -130 0
-202 -175 130 0
202 175 130 0
202 -175 -130 0
-203 6 0
-203 195 0
203 -6 -195 0
-204 202 0
-204 203 0
204 -202 -203 0
-205 -203 -202 0
-205 203 202 0
205 -203 202 0
205 203 -202 0
-206 173 -134 0
-206 -173 134 0
206 173 134 0
206 -173 -134 0
-207 7 0
-207 195 0
207 -7 -195 0
-208 206 0
-208 207 0
208 -206 -207 0
-209 -207 -206 0
-209 207 206 0
209 -207 206 0
209 207 -206 0
-210 171 -138 0
-210 -171 138 0
210 171 138 0
210 -171 -138 0
-211 8 0
-211 195 0
211 -8 -195 0
-212 210 0
-212 211 0
212 -210 -211 0
-213 -211 -210 0
-213 211 210 0
213 -211 210 0
213 211 -210 0
-214 169 -142 0
-214 -169 142 0
214 169 142 0
214 -169 -142 0
-215 9 0
-215 195 0
215 -9 -195 0
-216 214 0
-216 215 0
216 -214 -215 0
-217 -215 -214 0
-217 215 214 0
217 -215 214 0
217 215 -214 0
-218 167 -146 0
-218 -167 146 0
218 167 146 0
218 -167 -146 0
-219 10 0
-219 195 0
219 -10 -195 0
-220 218 0
-220 219 0
220 -218 -219 0
-221 -219 -218 0
-221 219 218 0
221 -219 218 0
221 219 -218 0
-222 165 -150 0
-222 -165 150 0
222 165 150 0
222 -165 -150 0
-223 11 0
-223 195 0
223 -11 -195 0
-224 222 0
-224 223 0
224 -222 -223 0
-225 -223 -222 0
-225 223 222 0
225 -223 222 0
225 223 -222 0
-226 163 -154 0
-226 -163 154 0
226 163 154 0
226 -163 -154 0
-227 38 0
-227 195 0
227 -38 -195 0
-228 226 0
-228 227 0
228 -226 -227 0
-229 -227 -226 0
-229 227 226 0
229 -227 226 0
229 227 -226 0
-230 -161 -158 0
-230 161 158 0
230 -161 158 0
230 161 -158 0
-231 39 0
-231 195 0
231 -39 -195 0
-232 230 0
-232 231 0
232 -230 -231 0
-233 229 0
-233 232 0
233 -229 -232 0
-234 -228 0
-234 -233 0
234 228 233 0
-235 225 0
-235 -234 0
235 -225 234 0
-236 -224 0
-236 -235 0
236 224 235 0
-237 221 0
-237 -236 0
237 -221 236 0
-238 -220 0
-238 -237 0
238 220 237 0
-239 217 0
-239 -238 0
239 -217 238 0
-240 -216 0
-240 -239 0
240 216 239 0
-241 213 0
-241 -240 0
241 -213 240 0
-242 -212 0
-242 -241 0
242 212 241 0
-243 209 0
-243 -242 0
243 -209 242 0
-244 -208 0
-244 -243 0
244 208 243 0
-245 205 0
-245 -244 0
245 -205 244 0
-246 -204 0
-246 -245 0
246 204 245 0
-247 201 0
-247 -246 0
247 -201 246 0
-248 -200 0
-248 -247 0
248 200 247 0
-249 248 -197 0
-249 -248 197 0
249 248 197 0
249 -248 -197 0
-250 20 0
-250 35 0
250 -20 -35 0
-251 21 0
-251 37 0
251 -21 -37 0
-252 250 0
-252 251 0
252 -250 -251 0
-253 -251 -250 0
-253 251 250 0
253 -251 250 0
253 251 -250 0
-254 -183 0
-254 -186 0
254 183 186 0
-255 253 0
-255 -254 0
255 -253 254 0
-256 254 -253 0
-256 -254 253 0
256 254 253 0
256 -254 -253 0
-257 22 0
-257 33 0
257 -22 -33 0
-258 256 0
-258 257 0
258 -256 -257 0
-259 -257 -256 0
-259 257 256 0
259 -257 256 0
259 257 -256 0
-260 -189 0
-260 -191 0
260 189 191 0
-261 259 0
-261 -260 0
261 -259 260 0
-262 260 -259 0
-262 -260 259 0
262 260 259 0
262 -260 -259 0
-263 32 0
-263 36 0
263 -32 -36 0
-264 262 0
-264 263 0
264 -262 -263 0
-265 -263 -262 0
-265 263 262 0
265 -263 262 0
265 263 -262 0
-266 194 0
-266 265 0
266 -194 -265 0
-267 -265 -194 0
-267 265 194 0
267 -265 194 0
267 265 -194 0
-268 31 0
-268 34 0
268 -31 -34 0
-269 267 0
-269 268 0
269 -267 -268 0
-270 -268 -267 0
-270 268 267 0
270 -268 267 0
270 268 -267 0
-271 5 0
-271 270 0
271 -5 -270 0
-272 -271 -249 0
-272 271 249 0
272 -271 249 0
272 271 -249 0
-273 246 -201 0
-273 -246 201 0
273 246 201 0
273 -246 -201 0
-274 6 0
-274 270 0
274 -6 -270 0
-275 273 0
-275 274 0
275 -273 -274 0
-276 -274 -273 0
-276 274 273 0
276 -274 273 0
276 274 -273 0
-277 244 -205 0
-277 -244 205 0
277 244 205 0
277 -244 -205 0
-278 7 0
-278 270 0
278 -7 -270 0
-279 277 0
-279 278 0
279 -277 -278 0
-280 -278 -277 0
-280 278 277 0
280 -278 277 0
280 278 -277 0
-281 242 -209 0
-281 -242 209 0
281 242 209 0
281 -242 -209 0
-282 8 0
-282 270 0
282 -8 -270 0
-283 281 0
-283 282 0
283 -281 -282 0
-284 -282 -281 0
-284 282 281 0
284 -282 281 0
284 282 -281 0
-285 240 -213 0
-285 -240 213 0
285 240 213 0
285 -240 -213 0
-286 9 0
-286 270 0
286 -9 -270 0
-287 285 0
-287 286 0
287 -285 -286 0
-288 -286 -285 0
-288 286 285 0
288 -286 285 0
288 286 -285 0
-289 238 -217 0
-289 -238 217 0
289 238 217 0
289 -238 -217 0
-290 10 0
-290 270 0
290 -10 -270 0
-291 289 0
-291 290 0
291 -289 -290 0
-292 -290 -289 0
-292 290 289 0
292 -290 289 0
292 290 -289 0
-293 236 -221 0
-293 -236 221 0
293 236 221 0
293 -236 -221 0
-294 11 0
-294 270 0
294 -11 -270 0
-295 293 0
-295 294 0
295 -293 -294 0
-296 -294 -293 0
-296 294 293 0
296 -294 293 0
296 294 -293 0
-297 234 -225 0
-297 -234 225 0
297 234 225 0
297 -234 -225 0
-298 38 0
-298 270 0
298 -38 -270 0
-299 297 0
-299 298 0
299 -297 -298 0
-300 -298 -297 0
-300 298 297 0
300 -298 297 0
300 298 -297 0
-301 -232 -229 0
-301 232 229 0
301 -232 229 0
301 232 -229 0
-302 39 0
-302 270 0
302 -39 -270 0
-303 301 0
-303 302 0
303 -301 -302 0
-304 300 0
-304 303 0
304 -300 -303 0
-305 -299 0
-305 -304 0
305 299 304 0
-306 296 0
-306 -305 0
306 -296 305 0
-307 -295 0
-307 -306 0
307 295 306 0
-308 292 0
-308 -307 0
308 -292 307 0
-309 -291 0
-309 -308 0
309 291 308 0
-310 288 0
-310 -309 0
310 -288 309 0
-311 -287 0
-311 -310 0
311 287 310 0
-312 284 0
-312 -311 0
312 -284 311 0
-313 -283 0
-313 -312 0
313 283 312 0
-314 280 0
-314 -313 0
314 -280 313 0
-315 -279 0
-315 -314 0
315 279 314 0
-316 276 0
-316 -315 0
316 -276 315 0
-317 -275 0
-317 -316 0
317 275 316 0
-318 317 -272 0
-318 -317 272 0
318 317 272 0
318 -317 -272 0
-319 19 0
-319 35 0
319 -19 -35 0
-320 20 0
-320 37 0
320 -20 -37 0
-321 319 0
-321 320 0
321 -319 -320 0
-322 -320 -319 0
-322 320 319 0
322 -320 319 0
322 320 -319 0
-323 -252 0
-323 -255 0
323 252 255 0
-324 322 0
-324 -323 0
324 -322 323 0
-325 323 -322 0
-325 -323 322 0
325 323 322 0
325 -323 -322 0
-326 21 0
-326 33 0
326 -21 -33 0
-327 325 0
-327 326 0
327 -325 -326 0
-328 -326 -325 0
-328 326 325 0
328 -326 325 0
328 326 -325 0
-329 -258 0
-329 -261 0
329 258 261 0
-330 328 0
-330 -329 0
330 -328 329 0
-331 329 -328 0
-331 -329 328 0
331 329 328 0
331 -329 -328 0
-332 22 0
-332 32 0
332 -22 -32 0
-333 331 0
-333 332 0
333 -331 -332 0
-334 -332 -331 0
-334 332 331 0
334 -332 331 0
334 332 -331 0
-335 -264 0
-335 -266 0
335 264 266 0
-336 334 0
-336 -335 0
336 -334 335 0
-337 335 -334 0
-337 -335 334 0
337 335 334 0
337 -335 -334 0
-338 31 0
-338 36 0
338 -31 -36 0
-339 337 0
-339 338 0
339 -337 -338 0
-340 -338 -337 0
-340 338 337 0
340 -338 337 0
340 338 -337 0
-341 269 0
-341 340 0
341 -269 -340 0
-342 -340 -269 0
-342 340 269 0
342 -340 269 0
342 340 -269 0
-343 30 0
-343 34 0
343 -30 -34 0
-344 342 0
-344 343 0
344 -342 -343 0
-345 -343 -342 0
-345 343 342 0
345 -343 342 0
345 343 -342 0
-346 6 0
-346 345 0
346 -6 -345 0
-347 -346 -318 0
-347 346 318 0
347 -346 318 0
347 346 -318 0
-348 315 -276 0
-348 -315 276 0
348 315 276 0
348 -315 -276 0
-349 7 0
-349 345 0
349 -7 -345 0
-350 348 0
-350 349 0
350 -348 -349 0
-351 -349 -348 0
-351 349 348 0
351 -349 348 0
351 349 -348 0
-352 313 -280 0
-352 -313 280 0
352 313 280 0
352 -313 -280 0
-353 8 0
-353 345 0
353 -8 -345 0
-354 352 0
-354 353 0
354 -352 -353 0
-355 -353 -352 0
-355 353 352 0
355 -353 352 0
355 353 -352 0
-356 311 -284 0
-356 -311 284 0
356 311 284 0
356 -311 -284 0
-357 9 0
-357 345 0
357 -9 -345 0
-358 356 0
-358 357 0
358 -356 -357 0
-359 -357 -356 0
-359 357 356 0
359 -357 356 0
359 357 -356 0
-360 309 -288 0
-360 -309 288 0
360 309 288 0
360 -309 -288 0
-361 10 0
-361 345 0
361 -10 -345 0
-362 360 0
-362 361 0
362 -360 -361 0
-363 -361 -360 0
-363 361 360 0
363 -361 360 0
363 361 -360 0
-364 307 -292 0
-364 -307 292 0
364 307 292 0
364 -307 -292 0
-365 11 0
-365 345 0
365 -11 -345 0
-366 364 0
-366 365 0
366 -364 -365 0
-367 -365 -364 0
-367 365 364 0
367 -365 364 0
367 365 -364 0
-368 305 -296 0
-368 -305 296 0
368 305 296 0
368 -305 -296 0
-369 38 0
-369 345 0
369 -38 -345 0
-370 368 0
-370 369 0
370 -368 -369 0
-371 -369 -368 0
-371 369 368 0
371 -369 368 0
371 369 -368 0
-372 -303 -300 0
-372 303 300 0
372 -303 300 0
372 303 -300 0
-373 39 0
-373 345 0
373 -39 -345 0
-374 372 0
-374 373 0
374 -372 -373 0
-375 371 0
-375 374 0
375 -371 -374 0
-376 -370 0
-376 -375 0
376 370 375 0
-377 367 0
-377 -376 0
377 -367 376 0
-378 -366 0
-378 -377 0
378 366 377 0
-379 363 0
-379 -378 0
379 -363 378 0
-380 -362 0
-380 -379 0
380 362 379 0
-381 359 0
-381 -380 0
381 -359 380 0
-382 -358 0
-382 -381 0
382 358 381 0
-383 355 0
-383 -382 0
383 -355 382 0
-384 -354 0
-384 -383 0
384 354 383 0
-385 351 0
-385 -384 0
385 -351 384 0
-386 -350 0
-386 -385 0
386 350 385 0
-387 386 -347 0
-387 -386 347 0
387 386 347 0
387 -386 -347 0
-388 18 0
-388 35 0
388 -18 -35 0
-389 19 0
-389 37 0
389 -19 -37 0
-390 388 0
-390 389 0
390 -388 -389 0
-391 -389 -388 0
-391 389 388 0
391 -389 388 0
391 389 -388 0
-392 -321 0
-392 -324 0
392 321 324 0
-393 391 0
-393 -392 0
393 -391 392 0
-394 392 -391 0
-394 -392 391 0
394 392 391 0
394 -392 -391 0
-395 20 0
-395 33 0
395 -20 -33 0
-396 394 0
-396 395 0
396 -394 -395 0
-397 -395 -394 0
-397 395 394 0
397 -395 394 0
397 395 -394 0
-398 -327 0
-398 -330 0
398 327 330 0
-399 397 0
-399 -398 0
399 -397 398 0
-400 398 -397 0
-400 -398 397 0
400 398 397 0
400 -398 -397 0
-401 21 0
-401 32 0
401 -21 -32 0
-402 400 0
-402 401 0
402 -400 -401 0
-403 -401 -400 0
-403 401 400 0
403 -401 400 0
403 401 -400 0
-404 -333 0
-404 -336 0
404 333 336 0
-405 403 0
-405 -404 0
405 -403 404 0
-406 404 -403 0
-406 -404 403 0
406 404 403 0
406 -404 -403 0
-407 22 0
-407 31 0
407 -22 -31 0
-408 406 0
-408 407 0
408 -406 -407 0
-409 -407 -406 0
-409 407 406 0
409 -407 406 0
409 407 -406 0
-410 -339 0
-410 -341 0
410 339 341 0
-411 409 0
-411 -410 0
411 -409 410 0
-412 410 -409 0
-412 -410 409 0
412 410 409 0
412 -410 -409 0
-413 30 0
-413 36 0
413 -30 -36 0
-414 412 0
-414 413 0
414 -412 -413 0
-415 -413 -412 0
-415 413 412 0
415 -413 412 0
415 413 -412 0
-416 344 0
-416 415 0
416 -344 -415 0
-417 -415 -344 0
-417 415 344 0
417 -415 344 0
417 415 -344 0
-418 29 0
-418 34 0
418 -29 -34 0
-419 417 0
-419 418 0
419 -417 -418 0
-420 -418 -417 0
-420 418 417 0
420 -418 417 0
420 418 -417 0
-421 7 0
-421 420 0
421 -7 -420 0
-422 -421 -387 0
-422 421 387 0
422 -421 387 0
422 421 -387 0
-423 384 -351 0
-423 -384 351 0
423 384 351 0
423 -384 -351 0
-424 8 0
-424 420 0
424 -8 -420 0
-425 423 0
-425 424 0
425 -423 -424 0
-426 -424 -423 0
-426 424 423 0
426 -424 423 0
426 424 -423 0
-427 382 -355 0
-427 -382 355 0
427 382 355 0
427 -382 -355 0
-428 9 0
-428 420 0
428 -9 -420 0
-429 427 0
-429 428 0
429 -427 -428 0
-430 -428 -427 0
-430 428 427 0
430 -428 427 0
430 428 -427 0
-431 380 -359 0
-431 -380 359 0
431 380 359 0
431 -380 -359 0
-432 10 0
-432 420 0
432 -10 -420 0
-433 431 0
-433 432 0
433 -431 -432 0
-434 -432 -431 0
-434 432 431 0
434 -432 431 0
434 432 -431 0
-435 378 -363 0
-435 -378 363 0
435 378 363 0
435 -378 -363 0
-436 11 0
-436 420 0
436 -11 -420 0
-437 435 0
-437 436 0
437 -435 -436 0
-438 -436 -435 0
-438 436 435 0
438 -436 435 0
438 436 -435 0
-439 376 -367 0
-439 -376 367 0
439 376 367 0
439 -376 -367 0
-440 38 0
-440 420 0
440 -38 -420 0
-441 439 0
-441 440 0
441 -439 -440 0
-442 -440 -439 0
-442 440 439 0
442 -440 439 0
442 440 -439 0
-443 -374 -371 0
-443 374 371 0
443 -374 371 0
443 374 -371 0
-444 39 0
-444 420 0
444 -39 -420 0
-445 443 0
-445 444 0
445 -443 -444 0
-446 442 0
-446 445 0
446 -442 -445 0
-447 -441 0
-447 -446 0
447 441 446 0
-448 438 0
-448 -447 0
448 -438 447 0
-449 -437 0
-449 -448 0
449 437 448 0
-450 434 0
-450 -449 0
450 -434 449 0
-451 -433 0
-451 -450 0
451 433 450 0
-452 430 0
-452 -451 0
452 -430 451 0
-453 -429 0
-453 -452 0
453 429 452 0
-454 426 0
-454 -453 0
454 -426 453 0
-455 -425 0
-455 -454 0
455 425 454 0
-456 455 -422 0
-456 -455 422 0
456 455 422 0
456 -455 -422 0
-457 17 0
-457 35 0
457 -17 -35 0
-458 18 0
-458 37 0
458 -18 -37 0
-459 457 0
-459 458 0
459 -457 -458 0
-460 -458 -457 0
-460 458 457 0
460 -458 457 0
460 458 -457 0
-461 -390 0
-461 -393 0
461 390 393 0
-462 460 0
-462 -461 0
462 -460 461 0
-463 461 -460 0
-463 -461 460 0
463 461 460 0
463 -461 -460 0
-464 19 0
-464 33 0
464 -19 -33 0
-465 463 0
-465 464 0
465 -463 -464 0
-466 -464 -463 0
-466 464 463 0
466 -464 463 0
466 464 -463 0
-467 -396 0
-467 -399 0
467 396 399 0
-468 466 0
-468 -467 0
468 -466 467 0
-469 467 -466 0
-469 -467 466 0
469 467 466 0
469 -467 -466 0
-470 20 0
-470 32 0
470 -20 -32 0
-471 469 0
-471 470 0
471 -469 -470 0
-472 -470 -469 0
-472 470 469 0
472 -470 469 0
472 470 -469 0
-473 -402 0
-473 -405 0
473 402 405 0
-474 472 0
-474 -473 0
474 -472 473 0
-475 473 -472 0
-475 -473 472 0
475 473 472 0
475 -473 -472 0
-476 21 0
-476 31 0
476 -21 -31 0
-477 475 0
-477 476 0
477 -475 -476 0
-478 -476 -475 0
-478 476 475 0
478 -476 475 0
478 476 -475 0
-479 -408 0
-479 -411 0
479 408 411 0
-480 478 0
-480 -479 0
480 -478 479 0
-481 479 -478 0
-481 -479 478 0
481 479 478 0
481 -479 -478 0
-482 22 0
-482 30 0
482 -22 -30 0
-483 481 0
-483 482 0
483 -481 -482 0
-484 -482 -481 0
-484 482 481 0
484 -482 481 0
484 482 -481 0
-485 -414 0
-485 -416 0
485 414 416 0
-486 484 0
-486 -485 0
486 -484 485 0
-487 485 -484 0
-487 -485 484 0
487 485 484 0
487 -485 -484 0
-488 29 0
-488 36 0
488 -29 -36 0
-489 487 0
-489 488 0
489 -487 -488 0
-490 -488 -487 0
-490 488 487 0
490 -488 487 0
490 488 -487 0
-491 419 0
-491 490 0
491 -419 -490 0
-492 -490 -419 0
-492 490 419 0
492 -490 419 0
492 490 -419 0
-493 28 0
-493 34 0
493 -28 -34 0
-494 492 0
-494 493 0
494 -492 -493 0
-495 -493 -492 0
-495 493 492 0
495 -493 492 0
495 493 -492 0
-496 8 0
-496 495 0
496 -8 -495 0
-497 -496 -456 0
-497 496 456 0
497 -496 456 0
497 496 -456 0
-498 453 -426 0
-498 -453 426 0
498 453 426 0
498 -453 -426 0
-499 9 0
-499 495 0
499 -9 -495 0
-500 498 0
-500 499 0
500 -498 -499 0
-501 -499 -498 0
-501 499 498 0
501 -499 498 0
501 499 -498 0
-502 451 -430 0
-502 -451 430 0
502 451 430 0
502 -451 -430 0
-503 10 0
-503 495 0
503 -10 -495 0
-504 502 0
-504 503 0
504 -502 -503 0
-505 -503 -502 0
-505 503 502 0
505 -503 502 0
505 503 -502 0
-506 449 -434 0
-506 -449 434 0
506 449 434 0
506 -449 -434 0
-507 11 0
-507 495 0
507 -11 -495 0
-508 506 0
-508 507 0
508 -506 -507 0
-509 -507 -506 0
-509 507 506 0
509 -507 506 0
509 507 -506 0
-510 447 -438 0
-510 -447 438 0
510 447 438 0
510 -447 -438 0
-511 38 0
-511 495 0
511 -38 -495 0
-512 510 0
-512 511 0
512 -510 -511 0
-513 -511 -510 0
-513 511 510 0
513 -511 510 0
513 511 -510 0
-514 -445 -442 0
-514 445 442 0
514 -445 442 0
514 445 -442 0
-515 39 0
-515 495 0
515 -39 -495 0
-516 514 0
-516 515 0
516 -514 -515 0
-517 513 0
-517 516 0
517 -513 -516 0
-518 -512 0
-518 -517 0
518 512 517 0
-519 509 0
-519 -518 0
519 -509 518 0
-520 -508 0
-520 -519 0
520 508 519 0
-521 505 0
-521 -520 0
521 -505 520 0
-522 -504 0
-522 -521 0
522 504 521 0
-523 501 0
-523 -522 0
523 -501 522 0
-524 -500 0
-524 -523 0
524 500 523 0
-525 524 -497 0
-525 -524 497 0
525 524 497 0
525 -524 -497 0
-526 16 0
-526 35 0
526 -16 -35 0
-527 17 0
-527 37 0
527 -17 -37 0
-528 526 0
-528 527 0
528 -526 -527 0
-529 -527 -526 0
-529 527 526 0
529 -527 526 0
529 527 -526 0
-530 -459 0
-530 -462 0
530 459 462 0
-531 529 0
-531 -530 0
531 -529 530 0
-532 530 -529 0
-532 -530 529 0
532 530 529 0
532 -530 -529 0
-533 18 0
-533 33 0
533 -18 -33 0
-534 532 0
-534 533 0
534 -532 -533 0
-535 -533 -532 0
-535 533 532 0
535 -533 532 0
535 533 -532 0
-536 -465 0
-536 -468 0
536 465 468 0
-537 535 0
-537 -536 0
537 -535 536 0
-538 536 -535 0
-538 -536 535 0
538 536 535 0
538 -536 -535 0
-539 19 0
-539 32 0
539 -19 -32 0
-540 538 0
-540 539 0
540 -538 -539 0
-541 -539 -538 0
-541 539 538 0
541 -539 538 0
541 539 -538 0
-542 -471 0
-542 -474 0
542 471 474 0
-543 541 0
-543 -542 0
543 -541 542 0
-544 542 -541 0
-544 -542 541 0
544 542 541 0
544 -542 -541 0
-545 20 0
-545 31 0
545 -20 -31 0
-546 544 0
-546 545 0
546 -544 -545 0
-547 -545 -544 0
-547 545 544 0
547 -545 544 0
547 545 -544 0
-548 -477 0
-548 -480 0
548 477 480 0
-549 547 0
-549 -548 0
549 -547 548 0
-550 548 -547 0
-550 -548 547 0
550 548 547 0
550 -548 -547 0
-551 21 0
-551 30 0
551 -21 -30 0
-552 550 0
-552 551 0
552 -550 -551 0
-553 -551 -550 0
-553 551 550 0
553 -551 550 0
553 551 -550 0
-554 -483 0
-554 -486 0
554 483 486 0
-555 553 0
-555 -554 0
555 -553 554 0
-556 554 -553 0
-556 -554 553 0
556 554 553 0
556 -554 -553 0
-557 22 0
-557 29 0
557 -22 -29 0
-558 556 0
-558 557 0
558 -556 -557 0
-559 -557 -556 0
-559 557 556 0
559 -557 556 0
559 557 -556 0
-560 -489 0
-560 -491 0
560 489 491 0
-561 559 0
-561 -560 0
561 -559 560 0
-562 560 -559 0
-562 -560 559 0
562 560 559 0
562 -560 -559 0
-563 28 0
-563 36 0
563 -28 -36 0
-564 562 0
-564 563 0
564 -562 -563 0
-565 -563 -562 0
-565 563 562 0
565 -563 562 0
565 563 -562 0
-566 494 0
-566 565 0
566 -494 -565 0
-567 -565 -494 0
-567 565 494 0
567 -565 494 0
567 565 -494 0
-568 27 0
-568 34 0
568 -27 -34 0
-569 567 0
-569 568 0
569 -567 -568 0
-570 -568 -567 0
-570 568 567 0
570 -568 567 0
570 568 -567 0
-571 9 0
-571 570 0
571 -9 -570 0
-572 -571 -525 0
-572 571 525 0
572 -571 525 0
572 571 -525 0
-573 522 -501 0
-573 -522 501 0
573 522 501 0
573 -522 -501 0
-574 10 0
-574 570 0
574 -10 -570 0
-575 573 0
-575 574 0
575 -573 -574 0
-576 -574 -573 0
-576 574 573 0
576 -574 573 0
576 574 -573 0
-577 520 -505 0
-577 -520 505 0
577 520 505 0
577 -520 -505 0
-578 11 0
-578 570 0
578 -11 -570 0
-579 577 0
-579 578 0
579 -577 -578 0
-580 -578 -577 0
-580 578 577 0
580 -578 577 0
580 578 -577 0
-581 518 -509 0
-581 -518 509 0
581 518 509 0
581 -518 -509 0
-582 38 0
-582 570 0
582 -38 -570 0
-583 581 0
-583 582 0
583 -581 -582 0
-584 -582 -581 0
-584 582 581 0
584 -582 581 0
584 582 -581 0
-585 -516 -513 0
-585 516 513 0
585 -516 513 0
585 516 -513 0
-586 39 0
-586 570 0
586 -39 -570 0
-587 585 0
-587 586 0
587 -585 -586 0
-588 584 0
-588 587 0
588 -584 -587 0
-589 -583 0
-589 -588 0
589 583 588 0
-590 580 0
-590 -589 0
590 -580 589 0
-591 -579 0
-591 -590 0
591 579 590 0
-592 576 0
-592 -591 0
592 -576 591 0
-593 -575 0
-593 -592 0
593 575 592 0
-594 593 -572 0
-594 -593 572 0
594 593 572 0
594 -593 -572 0
-595 15 0
-595 35 0
595 -15 -35 0
-596 16 0
-596 37 0
596 -16 -37 0
-597 595 0
-597 596 0
597 -595 -596 0
-598 -596 -595 0
-598 596 595 0
598 -596 595 0
598 596 -595 0
-599 -528 0
-599 -531 0
599 528 531 0
-600 598 0
-600 -599 0
600 -598 599 0
-601 599 -598 0
-601 -599 598 0
601 599 598 0
601 -599 -598 0
-602 17 0
-602 33 0
602 -17 -33 0
-603 601 0
-603 602 0
603 -601 -602 0
-604 -602 -601 0
-604 602 601 0
604 -602 601 0
604 602 -601 0
-605 -534 0
-605 -537 0
605 534 537 0
-606 604 0
-606 -605 0
606 -604 605 0
-607 605 -604 0
-607 -605 604 0
607 605 604 0
607 -605 -604 0
-608 18 0
-608 32 0
608 -18 -32 0
-609 607 0
-609 608 0
609 -607 -608 0
-610 -608 -607 0
-610 608 607 0
610 -608 607 0
610 608 -607 0
-611 -540 0
-611 -543 0
611 540 543 0
-612 610 0
-612 -611 0
612 -610 611 0
-613 611 -610 0
-613 -611 610 0
613 611 610 0
613 -611 -610 0
-614 19 0
-614 31 0
614 -19 -31 0
-615 613 0
-615 614 0
615 -613 -614 0
-616 -614 -613 0
-616 614 613 0
616 -614 613 0
616 614 -613 0
-617 -546 0
-617 -549 0
617 546 549 0
-618 616 0
-618 -617 0
618 -616 617 0
-619 617 -616 0
-619 -617 616 0
619 617 616 0
619 -617 -616 0
-620 20 0
-620 30 0
620 -20 -30 0
-621 619 0
-621 620 0
621 -619 -620 0
-622 -620 -619 0
-622 620 619 0
622 -620 619 0
622 620 -619 0
-623 -552 0
-623 -555 0
623 552 555 0
-624 622 0
-624 -623 0
624 -622 623 0
-625 623 -622 0
-625 -623 622 0
625 623 622 0
625 -623 -622 0
-626 21 0
-626 29 0
626 -21 -29 0
-627 625 0
-627 626 0
627 -625 -626 0
-628 -626 -625 0
-628 626 625 0
628 -626 625 0
628 626 -625 0
-629 -558 0
-629 -561 0
629 558 561 0
-630 628 0
-630 -629 0
630 -628 629 0
-631 629 -628 0
-631 -629 628 0
631 629 628 0
631 -629 -628 0
-632 22 0
-632 28 0
632 -22 -28 0
-633 631 0
-633 632 0
633 -631 -632 0
-634 -632 -631 0
-634 632 631 0
634 -632 631 0
634 632 -631 0
-635 -564 0
-635 -566 0
635 564 566 0
-636 634 0
-636 -635 0
636 -634 635 0
-637 635 -634 0
-637 -635 634 0
637 635 634 0
637 -635 -634 0
-638 27 0
-638 36 0
638 -27 -36 0
-639 637 0
-639 638 0
639 -637 -638 0
-640 -638 -637 0
-640 638 637 0
640 -638 637 0
640 638 -637 0
-641 569 0
-641 640 0
641 -569 -640 0
-642 -640 -569 0
-642 640 569 0
642 -640 569 0
642 640 -569 0
-643 26 0
-643 34 0
643 -26 -34 0
-644 642 0
-644 643 0
644 -642 -643 0
-645 -643 -642 0
-645 643 642 0
645 -643 642 0
645 643 -642 0
-646 10 0
-646 645 0
646 -10 -645 0
-647 -646 -594 0
-647 646 594 0
647 -646 594 0
647 646 -594 0
-648 591 -576 0
-648 -591 576 0
648 591 576 0
648 -591 -576 0
-649 11 0
-649 645 0
649 -11 -645 0
-650 648 0
-650 649 0
650 -648 -649 0
-651 -649 -648 0
-651 649 648 0
651 -649 648 0
651 649 -648 0
-652 589 -580 0
-652 -589 580 0
652 589 580 0
652 -589 -580 0
-653 38 0
-653 645 0
653 -38 -645 0
-654 652 0
-654 653 0
654 -652 -653 0
-655 -653 -652 0
-655 653 652 0
655 -653 652 0
655 653 -652 0
-656 -587 -584 0
-656 587 584 0
656 -587 584 0
656 587 -584 0
-657 39 0
-657 645 0
657 -39 -645 0
-658 656 0
-658 657 0
658 -656 -657 0
-659 655 0
-659 658 0
659 -655 -658 0
-660 -654 0
-660 -659 0
660 654 659 0
-661 651 0
-661 -660 0
661 -651 660 0
-662 -650 0
-662 -661 0
662 650 661 0
-663 662 -647 0
-663 -662 647 0
663 662 647 0
663 -662 -647 0
-664 14 0
-664 35 0
664 -14 -35 0
-665 15 0
-665 37 0
665 -15 -37 0
-666 664 0
-666 665 0
666 -664 -665 0
-667 -665 -664 0
-667 665 664 0
667 -665 664 0
667 665 -664 0
-668 -597 0
-668 -600 0
668 597 600 0
-669 667 0
-669 -668 0
669 -667 668 0
-670 668 -667 0
-670 -668 667 0
670 668 667 0
670 -668 -667 0
-671 16 0
-671 33 0
671 -16 -33 0
-672 670 0
-672 671 0
672 -670 -671 0
-673 -671 -670 0
-673 671 670 0
673 -671 670 0
673 671 -670 0
-674 -603 0
-674 -606 0
674 603 606 0
-675 673 0
-675 -674 0
675 -673 674 0
-676 674 -673 0
-676 -674 673 0
676 674 673 0
676 -674 -673 0
-677 17 0
-677 32 0
677 -17 -32 0
-678 676 0
-678 677 0
678 -676 -677 0
-679 -677 -676 0
-679 677 676 0
679 -677 676 0
679 677 -676 0
-680 -609 0
-680 -612 0
680 609 612 0
-681 679 0
-681 -680 0
681 -679 680 0
-682 680 -679 0
-682 -680 679 0
682 680 679 0
682 -680 -679 0
-683 18 0
-683 31 0
683 -18 -31 0
-684 682 0
-684 683 0
684 -682 -683 0
-685 -683 -682 0
-685 683 682 0
685 -683 682 0
685 683 -682 0
-686 -615 0
-686 -618 0
686 615 618 0
-687 685 0
-687 -686 0
687 -685 686 0
-688 686 -685 0
-688 -686 685 0
688 686 685 0
688 -686 -685 0
-689 19 0
-689 30 0
689 -19 -30 0
-690 688 0
-690 689 0
690 -688 -689 0
-691 -689 -688 0
-691 689 688 0
691 -689 688 0
691 689 -688 0
-692 -621 0
-692 -624 0
692 621 624 0
-693 691 0
-693 -692 0
693 -691 692 0
-694 692 -691 0
-694 -692 691 0
694 692 691 0
694 -692 -691 0
-695 20 0
-695 29 0
695 -20 -29 0
-696 694 0
-696 695 0
696 -694 -695 0
-697 -695 -694 0
-697 695 694 0
697 -695 694 0
697 695 -694 0
-698 -627 0
-698 -630 0
698 627 630 0
-699 697 0
-699 -698 0
699 -697 698 0
-700 698 -697 0
-700 -698 697 0
700 698 697 0
700 -698 -697 0
-701 21 0
-701 28 0
701 -21 -28 0
-702 700 0
-702 701 0
702 -700 -701 0
-703 -701 -700 0
-703 701 700 0
703 -701 700 0
703 701 -700 0
-704 -633 0
-704 -636 0
704 633 636 0
-705 703 0
-705 -704 0
705 -703 704 0
-706 704 -703 0
-706 -704 703 0
706 704 703 0
706 -704 -703 0
-707 22 0
-707 27 0
707 -22 -27 0
-708 706 0
-708 707 0
708 -706 -707 0
-709 -707 -706 0
-709 707 706 0
709 -707 706 0
709 707 -706 0
-710 -639 0
-710 -641 0
710 639 641 0
-711 709 0
-711 -710 0
711 -709 710 0
-712 710 -709 0
-712 -710 709 0
712 710 709 0
712 -710 -709 0
-713 26 0
-713 36 0
713 -26 -36 0
-714 712 0
-714 713 0
714 -712 -713 0
-715 -713 -712 0
-715 713 712 0
715 -713 712 0
715 713 -712 0
-716 644 0
-716 715 0
716 -644 -715 0
-717 -715 -644 0
-717 715 644 0
717 -715 644 0
717 715 -644 0
-718 25 0
-718 34 0
718 -25 -34 0
-719 717 0
-719 718 0
719 -717 -718 0
-720 -718 -717 0
-720 718 717 0
720 -718 717 0
720 718 -717 0
-721 11 0
-721 720 0
721 -11 -720 0
-722 -721 -663 0
-722 721 663 0
722 -721 663 0
722 721 -663 0
-723 660 -651 0
-723 -660 651 0
723 660 651 0
723 -660 -651 0
-724 38 0
-724 720 0
724 -38 -720 0
-725 723 0
-725 724 0
725 -723 -724 0
-726 -724 -723 0
-726 724 723 0
726 -724 723 0
726 724 -723 0
-727 -658 -655 0
-727 658 655 0
727 -658 655 0
727 658 -655 0
-728 39 0
-728 720 0
728 -39 -720 0
-729 727 0
-729 728 0
729 -727 -728 0
-730 726 0
-730 729 0
730 -726 -729 0
-731 -725 0
-731 -730 0
731 725 730 0
-732 731 -722 0
-732 -731 722 0
732 731 722 0
732 -731 -722 0
-733 13 0
-733 35 0
733 -13 -35 0
-734 14 0
-734 37 0
734 -14 -37 0
-735 733 0
-735 734 0
735 -733 -734 0
-736 -734 -733 0
-736 734 733 0
736 -734 733 0
736 734 -733 0
-737 -666 0
-737 -669 0
737 666 669 0
-738 736 0
-738 -737 0
738 -736 737 0
-739 737 -736 0
-739 -737 736 0
739 737 736 0
739 -737 -736 0
-740 15 0
-740 33 0
740 -15 -33 0
-741 739 0
-741 740 0
741 -739 -740 0
-742 -740 -739 0
-742 740 739 0
742 -740 739 0
742 740 -739 0
-743 -672 0
-743 -675 0
743 672 675 0
-744 742 0
-744 -743 0
744 -742 743 0
-745 743 -742 0
-745 -743 742 0
745 743 742 0
745 -743 -742 0
-746 16 0
-746 32 0
746 -16 -32 0
-747 745 0
-747 746 0
747 -745 -746 0
-748 -746 -745 0
-748 746 745 0
748 -746 745 0
748 746 -745 0
-749 -678 0
-749 -681 0
749 678 681 0
-750 748 0
-750 -749 0
750 -748 749 0
-751 749 -748 0
-751 -749 748 0
751 749 748 0
751 -749 -748 0
-752 17 0
-752 31 0
752 -17 -31 0
-753 751 0
-753 752 0
753 -751 -752 0
-754 -752 -751 0
-754 752 751 0
754 -752 751 0
754 752 -751 0
-755 -684 0
-755 -687 0
755 684 687 0
-756 754 0
-756 -755 0
756 -754 755 0
-757 755 -754 0
-757 -755 754 0
757 755 754 0
757 -755 -754 0
-758 18 0
-758 30 0
758 -18 -30 0
-759 757 0
-759 758 0
759 -757 -758 0
-760 -758 -757 0
-760 758 757 0
760 -758 757 0
760 758 -757 0
-761 -690 0
-761 -693 0
761 690 693 0
-762 760 0
-762 -761 0
762 -760 761 0
-763 761 -760 0
-763 -761 760 0
763 761 760 0
763 -761 -760 0
-764 19 0
-764 29 0
764 -19 -29 0
-765 763 0
-765 764 0
765 -763 -764 0
-766 -764 -763 0
-766 764 763 0
766 -764 763 0
766 764 -763 0
-767 -696 0
-767 -699 0
767 696 699 0
-768 766 0
-768 -767 0
768 -766 767 0
-769 767 -766 0
-769 -767 766 0
769 767 766 0
769 -767 -766 0
-770 20 0
-770 28 0
770 -20 -28 0
-771 769 0
-771 770 0
771 -769 -770 0
-772 -770 -769 0
-772 770 769 0
772 -770 769 0
772 770 -769 0
-773 -702 0
-773 -705 0
773 702 705 0
-774 772 0
-774 -773 0
774 -772 773 0
-775 773 -772 0
-775 -773 772 0
775 773 772 0
775 -773 -772 0
-776 21 0
-776 27 0
776 -21 -27 0
-777 775 0
-777 776 0
777 -775 -776 0
-778 -776 -775 0
-778 776 775 0
778 -776 775 0
778 776 -775 0
-779 -708 0
-779 -711 0
779 708 711 0
-780 778 0
-780 -779 0
780 -778 779 0
-781 779 -778 0
-781 -779 778 0
781 779 778 0
781 -779 -778 0
-782 22 0
-782 26 0
782 -22 -26 0
-783 781 0
-783 782 0
783 -781 -782 0
-784 -782 -781 0
-784 782 781 0
784 -782 781 0
784 782 -781 0
-785 -714 0
-785 -716 0
785 714 716 0
-786 784 0
-786 -785 0
786 -784 785 0
-787 785 -784 0
-787 -785 784 0
787 785 784 0
787 -785 -784 0
-788 25 0
-788 36 0
788 -25 -36 0
-789 787 0
-789 788 0
789 -787 -788 0
-790 -788 -787 0
-790 788 787 0
790 -788 787 0
790 788 -787 0
-791 719 0
-791 790 0
791 -719 -790 0
-792 -790 -719 0
-792 790 719 0
792 -790 719 0
792 790 -719 0
-793 24 0
-793 34 0
793 -24 -34 0
-794 792 0
-794 793 0
794 -792 -793 0
-795 -793 -792 0
-795 793 792 0
795 -793 792 0
795 793 -792 0
-796 38 0
-796 795 0
796 -38 -795 0
-797 -796 -732 0
-797 796 732 0
797 -796 732 0
797 796 -732 0
-798 -729 -726 0
-798 729 726 0
798 -729 726 0
798 729 -726 0
-799 39 0
-799 795 0
799 -39 -795 0
-800 798 0
-800 799 0
800 -798 -799 0
-801 -800 -797 0
-801 800 797 0
801 -800 797 0
801 800 -797 0
-802 12 0
-802 35 0
802 -12 -35 0
-803 13 0
-803 37 0
803 -13 -37 0
-804 -803 -802 0
-804 803 802 0
804 -803 802 0
804 803 -802 0
-805 -735 0
-805 -738 0
805 735 738 0
-806 805 -804 0
-806 -805 804 0
806 805 804 0
806 -805 -804 0
-807 14 0
-807 33 0
807 -14 -33 0
-808 -807 -806 0
-808 807 806 0
808 -807 806 0
808 807 -806 0
-809 -741 0
-809 -744 0
809 741 744 0
-810 809 -808 0
-810 -809 808 0
810 809 808 0
810 -809 -808 0
-811 15 0
-811 32 0
811 -15 -32 0
-812 -811 -810 0
-812 811 810 0
812 -811 810 0
812 811 -810 0
-813 -747 0
-813 -750 0
813 747 750 0
-814 813 -812 0
-814 -813 812 0
814 813 812 0
814 -813 -812 0
-815 16 0
-815 31 0
815 -16 -31 0
-816 -815 -814 0
-816 815 814 0
816 -815 814 0
816 815 -814 0
-817 -753 0
-817 -756 0
817 753 756 0
-818 817 -816 0
-818 -817 816 0
818 817 816 0
818 -817 -816 0
-819 17 0
-819 30 0
819 -17 -30 0
-820 -819 -818 0
-820 819 818 0
820 -819 818 0
820 819 -818 0
-821 -759 0
-821 -762 0
821 759 762 0
-822 821 -820 0
-822 -821 820 0
822 821 820 0
822 -821 -820 0
-823 18 0
-823 29 0
823 -18 -29 0
-824 -823 -822 0
-824 823 822 0
824 -823 822 0
824 823 -822 0
-825 -765 0
-825 -768 0
825 765 768 0
-826 825 -824 0
-826 -825 824 0
826 825 824 0
826 -825 -824 0
-827 19 0
-827 28 0
827 -19 -28 0
-828 -827 -826 0
-828 827 826 0
828 -827 826 0
828 827 -826 0
-829 -771 0
-829 -774 0
829 771 774 0
-830 829 -828 0
-830 -829 828 0
830 829 828 0
830 -829 -828 0
-831 20 0
-831 27 0
831 -20 -27 0
-832 -831 -830 0
-832 831 830 0
832 -831 830 0
832 831 -830 0
-833 -777 0
-833 -780 0
833 777 780 0
-834 833 -832 0
-834 -833 832 0
834 833 832 0
834 -833 -832 0
-835 21 0
-835 26 0
835 -21 -26 0
-836 -835 -834 0
-836 835 834 0
836 -835 834 0
836 835 -834 0
-837 -783 0
-837 -786 0
837 783 786 0
-838 837 -836 0
-838 -837 836 0
838 837 836 0
838 -837 -836 0
-839 22 0
-839 25 0
839 -22 -25 0
-840 -839 -838 0
-840 839 838 0
840 -839 838 0
840 839 -838 0
-841 -789 0
-841 -791 0
841 789 791 0
-842 841 -840 0
-842 -841 840 0
842 841 840 0
842 -841 -840 0
-843 24 0
-843 36 0
843 -24 -36 0
-844 -843 -842 0
-844 843 842 0
844 -843 842 0
844 843 -842 0
-845 -844 -794 0
-845 844 794 0
845 -844 794 0
845 844 -794 0
-846 23 0
-846 34 0
846 -23 -34 0
-847 -846 -845 0
-847 846 845 0
847 -846 845 0
847 846 -845 0
-848 39 0
-848 847 0
848 -39 -847 0
-849 -848 -801 0
-849 848 801 0
849 -848 801 0
849 848 -801 0
-850 1 0
-850 34 0
850 -1 -34 0
-851 2 0
-851 36 0
851 -2 -36 0
-852 -851 -850 0
-852 851 850 0
852 -851 850 0
852 851 -850 0
-853 2 0
-853 34 0
853 -2 -34 0
-854 3 0
-854 36 0
854 -3 -36 0
-855 853 0
-855 854 0
855 -853 -854 0
-856 -854 -853 0
-856 854 853 0
856 -854 853 0
856 854 -853 0
-857 3 0
-857 34 0
857 -3 -34 0
-858 4 0
-858 36 0
858 -4 -36 0
-859 857 0
-859 858 0
859 -857 -858 0
-860 -858 -857 0
-860 858 857 0
860 -858 857 0
860 858 -857 0
-861 4 0
-861 34 0
861 -4 -34 0
-862 5 0
-862 36 0
862 -5 -36 0
-863 861 0
-863 862 0
863 -861 -862 0
-864 -862 -861 0
-864 862 861 0
864 -862 861 0
864 862 -861 0
-865 5 0
-865 34 0
865 -5 -34 0
-866 6 0
-866 36 0
866 -6 -36 0
-867 865 0
-867 866 0
867 -865 -866 0
-868 -866 -865 0
-868 866 865 0
868 -866 865 0
868 866 -865 0
-869 6 0
-869 34 0
869 -6 -34 0
-870 7 0
-870 36 0
870 -7 -36 0
-871 869 0
-871 870 0
871 -869 -870 0
-872 -870 -869 0
-872 870 869 0
872 -870 869 0
872 870 -869 0
-873 7 0
-873 34 0
873 -7 -34 0
-874 8 0
-874 36 0
874 -8 -36 0
-875 873 0
-875 874 0
875 -873 -874 0
-876 -874 -873 0
-876 874 873 0
876 -874 873 0
876 874 -873 0
-877 8 0
-877 34 0
877 -8 -34 0
-878 9 0
-878 36 0
878 -9 -36 0
-879 877 0
-879 878 0
879 -877 -878 0
-880 -878 -877 0
-880 878 877 0
880 -878 877 0
880 878 -877 0
-881 9 0
-881 34 0
881 -9 -34 0
-882 10 0
-882 36 0
882 -10 -36 0
-883 881 0
-883 882 0
883 -881 -882 0
-884 -882 -881 0
-884 882 881 0
884 -882 881 0
884 882 -881 0
-885 10 0
-885 34 0
885 -10 -34 0
-886 11 0
-886 36 0
886 -11 -36 0
-887 885 0
-887 886 0
887 -885 -886 0
-888 -886 -885 0
-888 886 885 0
888 -886 885 0
888 886 -885 0
-889 11 0
-889 34 0
889 -11 -34 0
-890 36 0
-890 38 0
890 -36 -38 0
-891 889 0
-891 890 0
891 -889 -890 0
-892 -890 -889 0
-892 890 889 0
892 -890 889 0
892 890 -889 0
-893 34 0
-893 38 0
893 -34 -38 0
-894 36 0
-894 39 0
894 -36 -39 0
-895 893 0
-895 894 0
895 -893 -894 0
-896 892 0
-896 895 0
896 -892 -895 0
-897 -891 0
-897 -896 0
897 891 896 0
-898 888 0
-898 -897 0
898 -888 897 0
-899 -887 0
-899 -898 0
899 887 898 0
-900 884 0
-900 -899 0
900 -884 899 0
-901 -883 0
-901 -900 0
901 883 900 0
-902 880 0
-902 -901 0
902 -880 901 0
-903 -879 0
-903 -902 0
903 879 902 0
-904 876 0
-904 -903 0
904 -876 903 0
-905 -875 0
-905 -904 0
905 875 904 0
-906 872 0
-906 -905 0
906 -872 905 0
-907 -871 0
-907 -906 0
907 871 906 0
-908 868 0
-908 -907 0
908 -868 907 0
-909 -867 0
-909 -908 0
909 867 908 0
-910 864 0
-910 -909 0
910 -864 909 0
-911 -863 0
-911 -910 0
911 863 910 0
-912 860 0
-912 -911 0
912 -860 911 0
-913 -859 0
-913 -912 0
913 859 912 0
-914 856 0
-914 -913 0
914 -856 913 0
-915 -855 0
-915 -914 0
915 855 914 0
-916 915 -852 0
-916 -915 852 0
916 915 852 0
916 -915 -852 0
-917 3 0
-917 22 0
917 -3 -22 0
-918 -917 -916 0
-918 917 916 0
918 -917 916 0
918 917 -916 0
-919 913 -856 0
-919 -913 856 0
919 913 856 0
919 -913 -856 0
-920 4 0
-920 22 0
920 -4 -22 0
-921 919 0
-921 920 0
921 -919 -920 0
-922 -920 -919 0
-922 920 919 0
922 -920 919 0
922 920 -919 0
-923 911 -860 0
-923 -911 860 0
923 911 860 0
923 -911 -860 0
-924 5 0
-924 22 0
924 -5 -22 0
-925 923 0
-925 924 0
925 -923 -924 0
-926 -924 -923 0
-926 924 923 0
926 -924 923 0
926 924 -923 0
-927 909 -864 0
-927 -909 864 0
927 909 864 0
927 -909 -864 0
-928 6 0
-928 22 0
928 -6 -22 0
-929 927 0
-929 928 0
929 -927 -928 0
-930 -928 -927 0
-930 928 927 0
930 -928 927 0
930 928 -927 0
-931 907 -868 0
-931 -907 868 0
931 907 868 0
931 -907 -868 0
-932 7 0
-932 22 0
932 -7 -22 0
-933 931 0
-933 932 0
933 -931 -932 0
-934 -932 -931 0
-934 932 931 0
934 -932 931 0
934 932 -931 0
-935 905 -872 0
-935 -905 872 0
935 905 872 0
935 -905 -872 0
-936 8 0
-936 22 0
936 -8 -22 0
-937 935 0
-937 936 0
937 -935 -936 0
-938 -936 -935 0
-938 936 935 0
938 -936 935 0
938 936 -935 0
-939 903 -876 0
-939 -903 876 0
939 903 876 0
939 -903 -876 0
-940 9 0
-940 22 0
940 -9 -22 0
-941 939 0
-941 940 0
941 -939 -940 0
-942 -940 -939 0
-942 940 939 0
942 -940 939 0
942 940 -939 0
-943 901 -880 0
-943 -901 880 0
943 901 880 0
943 -901 -880 0
-944 10 0
-944 22 0
944 -10 -22 0
-945 943 0
-945 944 0
945 -943 -944 0
-946 -944 -943 0
-946 944 943 0
946 -944 943 0
946 944 -943 0
-947 899 -884 0
-947 -899 884 0
947 899 884 0
947 -899 -884 0
-948 11 0
-948 22 0
948 -11 -22 0
-949 947 0
-949 948 0
949 -947 -948 0
-950 -948 -947 0
-950 948 947 0
950 -948 947 0
950 948 -947 0
-951 897 -888 0
-951 -897 888 0
951 897 888 0
951 -897 -888 0
-952 22 0
-952 38 0
952 -22 -38 0
-953 951 0
-953 952 0
953 -951 -952 0
-954 -952 -951 0
-954 952 951 0
954 -952 951 0
954 952 -951 0
-955 -895 -892 0
-955 895 892 0
955 -895 892 0
955 895 -892 0
-956 22 0
-956 39 0
956 -22 -39 0
-957 955 0
-957 956 0
957 -955 -956 0
-958 954 0
-958 957 0
958 -954 -957 0
-959 -953 0
-959 -958 0
959 953 958 0
-960 950 0
-960 -959 0
960 -950 959 0
-961 -949 0
-961 -960 0
961 949 960 0
-962 946 0
-962 -961 0
962 -946 961 0
-963 -945 0
-963 -962 0
963 945 962 0
-964 942 0
-964 -963 0
964 -942 963 0
-965 -941 0
-965 -964 0
965 941 964 0
-966 938 0
-966 -965 0
966 -938 965 0
-967 -937 0
-967 -966 0
967 937 966 0
-968 934 0
-968 -967 0
968 -934 967 0
-969 -933 0
-969 -968 0
969 933 968 0
-970 930 0
-970 -969 0
970 -930 969 0
-971 -929 0
-971 -970 0
971 929 970 0
-972 926 0
-972 -971 0
972 -926 971 0
-973 -925 0
-973 -972 0
973 925 972 0
-974 922 0
-974 -973 0
974 -922 973 0
-975 -921 0
-975 -974 0
975 921 974 0
-976 975 -918 0
-976 -975 918 0
976 975 918 0
976 -975 -918 0
-977 4 0
-977 21 0
977 -4 -21 0
-978 -977 -976 0
-978 977 976 0
978 -977 976 0
978 977 -976 0
-979 973 -922 0
-979 -973 922 0
979 973 922 0
979 -973 -922 0
-980 5 0
-980 21 0
980 -5 -21 0
-981 979 0
-981 980 0
981 -979 -980 0
-982 -980 -979 0
-982 980 979 0
982 -980 979 0
982 980 -979 0
-983 971 -926 0
-983 -971 926 0
983 971 926 0
983 -971 -926 0
-984 6 0
-984 21 0
984 -6 -21 0
-985 983 0
-985 984 0
985 -983 -984 0
-986 -984 -983 0
-986 984 983 0
986 -984 983 0
986 984 -983 0
-987 969 -930 0
-987 -969 930 0
987 969 930 0
987 -969 -930 0
-988 7 0
-988 21 0
988 -7 -21 0
-989 987 0
-989 988 0
989 -987 -988 0
-990 -988 -987 0
-990 988 987 0
990 -988 987 0
990 988 -987 0
-991 967 -934 0
-991 -967 934 0
991 967 934 0
991 -967 -934 0
-992 8 0
-992 21 0
992 -8 -21 0
-993 991 0
-993 992 0
993 -991 -992 0
-994 -992 -991 0
-994 992 991 0
994 -992 991 0
994 992 -991 0
-995 965 -938 0
-995 -965 938 0
995 965 938 0
995 -965 -938 0
-996 9 0
-996 21 0
996 -9 -21 0
-997 995 0
-997 996 0
997 -995 -996 0
-998 -996 -995 0
-998 996 995 0
998 -996 995 0
998 996 -995 0
-999 963 -942 0
-999 -963 942 0
999 963 942 0
999 -963 -942 0
-1000 10 0
-1000 21 0
1000 -10 -21 0
-1001 999 0
-1001 1000 0
1001 -999 -1000 0
-1002 -1000 -999 0
-1002 1000 999 0
1002 -1000 999 0
1002 1000 -999 0
-1003 961 -946 0
-1003 -961 946 0
1003 961 946 0
1003 -961 -946 0
-1004 11 0
-1004 21 0
1004 -11 -21 0
-1005 1003 0
-1005 1004 0
1005 -1003 -1004 0
-1006 -1004 -1003 0
-1006 1004 1003 0
1006 -1004 1003 0
1006 1004 -1003 0
-1007 959 -950 0
-1007 -959 950 0
1007 959 950 0
1007 -959 -950 0
-1008 21 0
-1008 38 0
1008 -21 -38 0
-1009 1007 0
-1009 1008 0
1009 -1007 -1008 0
-1010 -1008 -1007 0
-1010 1008 1007 0
1010 -1008 1007 0
1010 1008 -1007 0
-1011 -957 -954 0
-1011 957 954 0
1011 -957 954 0
1011 957 -954 0
-1012 21 0
-1012 39 0
1012 -21 -39 0
-1013 1011 0
-1013 1012 0
1013 -1011 -1012 0
-1014 1010 0
-1014 1013 0
1014 -1010 -1013 0
-1015 -1009 0
-1015 -1014 0
1015 1009 1014 0
-1016 1006 0
-1016 -1015 0
1016 -1006 1015 0
-1017 -1005 0
-1017 -1016 0
1017 1005 1016 0
-1018 1002 0
-1018 -1017 0
1018 -1002 1017 0
-1019 -1001 0
-1019 -1018 0
1019 1001 1018 0
-1020 998 0
-1020 -1019 0
1020 -998 1019 0
-1021 -997 0
-1021 -1020 0
1021 997 1020 0
-1022 994 0
-1022 -1021 0
1022 -994 1021 0
-1023 -993 0
-1023 -1022 0
1023 993 1022 0
-1024 990 0
-1024 -1023 0
1024 -990 1023 0
-1025 -989 0
-1025 -1024 0
1025 989 1024 0
-1026 986 0
-1026 -1025 0
1026 -986 1025 0
-1027 -985 0
-1027 -1026 0
1027 985 1026 0
-1028 982 0
-1028 -1027 0
1028 -982 1027 0
-1029 -981 0
-1029 -1028 0
1029 981 1028 0
-1030 1029 -978 0
-1030 -1029 978 0
1030 1029 978 0
1030 -1029 -978 0
-1031 5 0
-1031 20 0
1031 -5 -20 0
-1032 -1031 -1030 0
-1032 1031 1030 0
1032 -1031 1030 0
1032 1031 -1030 0
-1033 1027 -982 0
-1033 -1027 982 0
1033 1027 982 0
1033 -1027 -982 0
-1034 6 0
-1034 20 0
1034 -6 -20 0
-1035 1033 0
-1035 1034 0
1035 -1033 -1034 0
-1036 -1034 -1033 0
-1036 1034 1033 0
1036 -1034 1033 0
1036 1034 -1033 0
-1037 1025 -986 0
-1037 -1025 986 0
1037 1025 986 0
1037 -1025 -986 0
-1038 7 0
-1038 20 0
1038 -7 -20 0
-1039 1037 0
-1039 1038 0
1039 -1037 -1038 0
-1040 -1038 -1037 0
-1040 1038 1037 0
1040 -1038 1037 0
1040 1038 -1037 0
-1041 1023 -990 0
-1041 -1023 990 0
1041 1023 990 0
1041 -1023 -990 0
-1042 8 0
-1042 20 0
1042 -8 -20 0
-1043 1041 0
-1043 1042 0
1043 -1041 -1042 0
-1044 -1042 -1041 0
-1044 1042 1041 0
1044 -1042 1041 0
1044 1042 -1041 0
-1045 1021 -994 0
-1045 -1021 994 0
1045 1021 994 0
1045 -1021 -994 0
-1046 9 0
-1046 20 0
1046 -9 -20 0
-1047 1045 0
-1047 1046 0
1047 -1045 -1046 0
-1048 -1046 -1045 0
-1048 1046 1045 0
1048 -1046 1045 0
1048 1046 -1045 0
-1049 1019 -998 0
-1049 -1019 998 0
1049 1019 998 0
1049 -1019 -998 0
-1050 10 0
-1050 20 0
1050 -10 -20 0
-1051 1049 0
-1051 1050 0
1051 -1049 -1050 0
-1052 -1050 -1049 0
-1052 1050 1049 0
1052 -1050 1049 0
1052 1050 -1049 0
-1053 1017 -1002 0
-1053 -1017 1002 0
1053 1017 1002 0
1053 -1017 -1002 0
-1054 11 0
-1054 20 0
1054 -11 -20 0
-1055 1053 0
-1055 1054 0
1055 -1053 -1054 0
-1056 -1054 -1053 0
-1056 1054 1053 0
1056 -1054 1053 0
1056 1054 -1053 0
-1057 1015 -1006 0
-1057 -1015 1006 0
1057 1015 1006 0
1057 -1015 -1006 0
-1058 20 0
-1058 38 0
1058 -20 -38 0
-1059 1057 0
-1059 1058 0
1059 -1057 -1058 0
-1060 -1058 -1057 0
-1060 1058 1057 0
1060 -1058 1057 0
1060 1058 -1057 0
-1061 -1013 -1010 0
-1061 1013 1010 0
1061 -1013 1010 0
1061 1013 -1010 0
-1062 20 0
-1062 39 0
1062 -20 -39 0
-1063 1061 0
-1063 1062 0
1063 -1061 -1062 0
-1064 1060 0
-1064 1063 0
1064 -1060 -1063 0
-1065 -1059 0
-1065 -1064 0
1065 1059 1064 0
-1066 1056 0
-1066 -1065 0
1066 -1056 1065 0
-1067 -1055 0
-1067 -1066 0
1067 1055 1066 0
-1068 1052 0
-1068 -1067 0
1068 -1052 1067 0
-1069 -1051 0
-1069 -1068 0
1069 1051 1068 0
-1070 1048 0
-1070 -1069 0
1070 -1048 1069 0
-1071 -1047 0
-1071 -1070 0
1071 1047 1070 0
-1072 1044 0
-1072 -1071 0
1072 -1044 1071 0
-1073 -1043 0
-1073 -1072 0
1073 1043 1072 0
-1074 1040 0
-1074 -1073 0
1074 -1040 1073 0
-1075 -1039 0
-1075 -1074 0
1075 1039 1074 0
-1076 1036 0
-1076 -1075 0
1076 -1036 1075 0
-1077 -1035 0
-1077 -1076 0
1077 1035 1076 0
-1078 1077 -1032 0
-1078 -1077 1032 0
1078 1077 1032 0
1078 -1077 -1032 0
-1079 6 0
-1079 19 0
1079 -6 -19 0
-1080 -1079 -1078 0
-1080 1079 1078 0
1080 -1079 1078 0
1080 1079 -1078 0
-1081 1075 -1036 0
-1081 -1075 1036 0
1081 1075 1036 0
1081 -1075 -1036 0
-1082 7 0
-1082 19 0
1082 -7 -19 0
-1083 1081 0
-1083 1082 0
1083 -1081 -1082 0
-1084 -1082 -1081 0
-1084 1082 1081 0
1084 -1082 1081 0
1084 1082 -1081 0
-1085 1073 -1040 0
-1085 -1073 1040 0
1085 1073 1040 0
1085 -1073 -1040 0
-1086 8 0
-1086 19 0
1086 -8 -19 0
-1087 1085 0
-1087 1086 0
1087 -1085 -1086 0
-1088 -1086 -1085 0
-1088 1086 1085 0
1088 -1086 1085 0
1088 1086 -1085 0
-1089 1071 -1044 0
-1089 -1071 1044 0
1089 1071 1044 0
1089 -1071 -1044 0
-1090 9 0
-1090 19 0
1090 -9 -19 0
-1091 1089 0
-1091 1090 0
1091 -1089 -1090 0
-1092 -1090 -1089 0
-1092 1090 1089 0
1092 -1090 1089 0
1092 1090 -1089 0
-1093 1069 -1048 0
-1093 -1069 1048 0
1093 1069 1048 0
1093 -1069 -1048 0
-1094 10 0
-1094 19 0
1094 -10 -19 0
-1095 1093 0
-1095 1094 0
1095 -1093 -1094 0
-1096 -1094 -1093 0
-1096 1094 1093 0
1096 -1094 1093 0
1096 1094 -1093 0
-1097 1067 -1052 0
-1097 -1067 1052 0
1097 1067 1052 0
1097 -1067 -1052 0
-1098 11 0
-1098 19 0
1098 -11 -19 0
-1099 1097 0
-1099 1098 0
1099 -1097 -1098 0
-1100 -1098 -1097 0
-1100 1098 1097 0
1100 -1098 1097 0
1100 1098 -1097 0
-1101 1065 -1056 0
-1101 -1065 1056 0
1101 1065 1056 0
1101 -1065 -1056 0
-1102 19 0
-1102 38 0
1102 -19 -38 0
-1103 1101 0
-1103 1102 0
1103 -1101 -1102 0
-1104 -1102 -1101 0
-1104 1102 1101 0
1104 -1102 1101 0
1104 1102 -1101 0
-1105 -1063 -1060 0
-1105 1063 1060 0
1105 -1063 1060 0
1105 1063 -1060 0
-1106 19 0
-1106 39 0
1106 -19 -39 0
-1107 1105 0
-1107 1106 0
1107 -1105 -1106 0
-1108 1104 0
-1108 1107 0
1108 -1104 -1107 0
-1109 -1103 0
-1109 -1108 0
1109 1103 1108 0
-1110 1100 0
-1110 -1109 0
1110 -1100 1109 0
-1111 -1099 0
-1111 -1110 0
1111 1099 1110 0
-1112 1096 0
-1112 -1111 0
1112 -1096 1111 0
-1113 -1095 0
-1113 -1112 0
1113 1095 1112 0
-1114 1092 0
-1114 -1113 0
1114 -1092 1113 0
-1115 -1091 0
-1115 -1114 0
1115 1091 1114 0
-1116 1088 0
-1116 -1115 0
1116 -1088 1115 0
-1117 -1087 0
-1117 -1116 0
1117 1087 1116 0
-1118 1084 0
-1118 -1117 0
1118 -1084 1117 0
-1119 -1083 0
-1119 -1118 0
1119 1083 1118 0
-1120 1119 -1080 0
-1120 -1119 1080 0
1120 1119 1080 0
1120 -1119 -1080 0
-1121 7 0
-1121 18 0
1121 -7 -18 0
-1122 -1121 -1120 0
-1122 1121 1120 0
1122 -1121 1120 0
1122 1121 -1120 0
-1123 1117 -1084 0
-1123 -1117 1084 0
1123 1117 1084 0
1123 -1117 -1084 0
-1124 8 0
-1124 18 0
1124 -8 -18 0
-1125 1123 0
-1125 1124 0
1125 -1123 -1124 0
-1126 -1124 -1123 0
-1126 1124 1123 0
1126 -1124 1123 0
1126 1124 -1123 0
-1127 1115 -1088 0
-1127 -1115 1088 0
1127 1115 1088 0
1127 -1115 -1088 0
-1128 9 0
-1128 18 0
1128 -9 -18 0
-1129 1127 0
-1129 1128 0
1129 -1127 -1128 0
-1130 -1128 -1127 0
-1130 1128 1127 0
1130 -1128 1127 0
1130 1128 -1127 0
-1131 1113 -1092 0
-1131 -1113 1092 0
1131 1113 1092 0
1131 -1113 -1092 0
-1132 10 0
-1132 18 0
1132 -10 -18 0
-1133 1131 0
-1133 1132 0
1133 -1131 -1132 0
-1134 -1132 -1131 0
-1134 1132 1131 0
1134 -1132 1131 0
1134 1132 -1131 0
-1135 1111 -1096 0
-1135 -1111 1096 0
1135 1111 1096 0
1135 -1111 -1096 0
-1136 11 0
-1136 18 0
1136 -11 -18 0
-1137 1135 0
-1137 1136 0
1137 -1135 -1136 0
-1138 -1136 -1135 0
-1138 1136 1135 0
1138 -1136 1135 0
1138 1136 -1135 0
-1139 1109 -1100 0
-1139 -1109 1100 0
1139 1109 1100 0
1139 -1109 -1100 0
-1140 18 0
-1140 38 0
1140 -18 -38 0
-1141 1139 0
-1141 1140 0
1141 -1139 -1140 0
-1142 -1140 -1139 0
-1142 1140 1139 0
1142 -1140 1139 0
1142 1140 -1139 0
-1143 -1107 -1104 0
-1143 1107 1104 0
1143 -1107 1104 0
1143 1107 -1104 0
-1144 18 0
-1144 39 0
1144 -18 -39 0
-1145 1143 0
-1145 1144 0
1145 -1143 -1144 0
-1146 1142 0
-1146 1145 0
1146 -1142 -1145 0
-1147 -1141 0
-1147 -1146 0
1147 1141 1146 0
-1148 1138 0
-1148 -1147 0
1148 -1138 1147 0
-1149 -1137 0
-1149 -1148 0
1149 1137 1148 0
-1150 1134 0
-1150 -1149 0
1150 -1134 1149 0
-1151 -1133 0
-1151 -1150 0
1151 1133 1150 0
-1152 1130 0
-1152 -1151 0
1152 -1130 1151 0
-1153 -1129 0
-1153 -1152 0
1153 1129 1152 0
-1154 1126 0
-1154 -1153 0
1154 -1126 1153 0
-1155 -1125 0
-1155 -1154 0
1155 1125 1154 0
-1156 1155 -1122 0
-1156 -1155 1122 0
1156 1155 1122 0
1156 -1155 -1122 0
-1157 8 0
-1157 17 0
1157 -8 -17 0
-1158 -1157 -1156 0
-1158 1157 1156 0
1158 -1157 1156 0
1158 1157 -1156 0
-1159 1153 -1126 0
-1159 -1153 1126 0
1159 1153 1126 0
1159 -1153 -1126 0
-1160 9 0
-1160 17 0
1160 -9 -17 0
-1161 1159 0
-1161 1160 0
1161 -1159 -1160 0
-1162 -1160 -1159 0
-1162 1160 1159 0
1162 -1160 1159 0
1162 1160 -1159 0
-1163 1151 -1130 0
-1163 -1151 1130 0
1163 1151 1130 0
1163 -1151 -1130 0
-1164 10 0
-1164 17 0
1164 -10 -17 0
-1165 1163 0
-1165 1164 0
1165 -1163 -1164 0
-1166 -1164 -1163 0
-1166 1164 1163 0
1166 -1164 1163 0
1166 1164 -1163 0
-1167 1149 -1134 0
-1167 -1149 1134 0
1167 1149 1134 0
1167 -1149 -1134 0
-1168 11 0
-1168 17 0
1168 -11 -17 0
-1169 1167 0
-1169 1168 0
1169 -1167 -1168 0
-1170 -1168 -1167 0
-1170 1168 1167 0
1170 -1168 1167 0
1170 1168 -1167 0
-1171 1147 -1138 0
-1171 -1147 1138 0
1171 1147 1138 0
1171 -1147 -1138 0
-1172 17 0
-1172 38 0
1172 -17 -38 0
-1173 1171 0
-1173 1172 0
1173 -1171 -1172 0
-1174 -1172 -1171 0
-1174 1172 1171 0
1174 -1172 1171 0
1174 1172 -1171 0
-1175 -1145 -1142 0
-1175 1145 1142 0
1175 -1145 1142 0
1175 1145 -1142 0
-1176 17 0
-1176 39 0
1176 -17 -39 0
-1177 1175 0
-1177 1176 0
1177 -1175 -1176 0
-1178 1174 0
-1178 1177 0
1178 -1174 -1177 0
-1179 -1173 0
-1179 -1178 0
1179 1173 1178 0
-1180 1170 0
-1180 -1179 0
1180 -1170 1179 0
-1181 -1169 0
-1181 -1180 0
1181 1169 1180 0
-1182 1166 0
-1182 -1181 0
1182 -1166 1181 0
-1183 -1165 0
-1183 -1182 0
1183 1165 1182 0
-1184 1162 0
-1184 -1183 0
1184 -1162 1183 0
-1185 -1161 0
-1185 -1184 0
1185 1161 1184 0
-1186 1185 -1158 0
-1186 -1185 1158 0
1186 1185 1158 0
1186 -1185 -1158 0
-1187 9 0
-1187 16 0
1187 -9 -16 0
-1188 -1187 -1186 0
-1188 1187 1186 0
1188 -1187 1186 0
1188 1187 -1186 0
-1189 1183 -1162 0
-1189 -1183 1162 0
1189 1183 1162 0
1189 -1183 -1162 0
-1190 10 0
-1190 16 0
1190 -10 -16 0
-1191 1189 0
-1191 1190 0
1191 -1189 -1190 0
-1192 -1190 -1189 0
-1192 1190 1189 0
1192 -1190 1189 0
1192 1190 -1189 0
-1193 1181 -1166 0
-1193 -1181 1166 0
1193 1181 1166 0
1193 -1181 -1166 0
-1194 11 0
-1194 16 0
1194 -11 -16 0
-1195 1193 0
-1195 1194 0
1195 -1193 -1194 0
-1196 -1194 -1193 0
-1196 1194 1193 0
1196 -1194 1193 0
1196 1194 -1193 0
-1197 1179 -1170 0
-1197 -1179 1170 0
1197 1179 1170 0
1197 -1179 -1170 0
-1198 16 0
-1198 38 0
1198 -16 -38 0
-1199 1197 0
-1199 1198 0
1199 -1197 -1198 0
-1200 -1198 -1197 0
-1200 1198 1197 0
1200 -1198 1197 0
1200 1198 -1197 0
-1201 -1177 -1174 0
-1201 1177 1174 0
1201 -1177 1174 0
1201 1177 -1174 0
-1202 16 0
-1202 39 0
1202 -16 -39 0
-1203 1201 0
-1203 1202 0
1203 -1201 -1202 0
-1204 1200 0
-1204 1203 0
1204 -1200 -1203 0
-1205 -1199 0
-1205 -1204 0
1205 1199 1204 0
-1206 1196 0
-1206 -1205 0
1206 -1196 1205 0
-1207 -1195 0
-1207 -1206 0
1207 1195 1206 0
-1208 1192 0
-1208 -1207 0
1208 -1192 1207 0
-1209 -1191 0
-1209 -1208 0
1209 1191 1208 0
-1210 1209 -1188 0
-1210 -1209 1188 0
1210 1209 1188 0
1210 -1209 -1188 0
-1211 10 0
-1211 15 0
1211 -10 -15 0
-1212 -1211 -1210 0
-1212 1211 1210 0
1212 -1211 1210 0
1212 1211 -1210 0
-1213 1207 -1192 0
-1213 -1207 1192 0
1213 1207 1192 0
1213 -1207 -1192 0
-1214 11 0
-1214 15 0
1214 -11 -15 0
-1215 1213 0
-1215 1214 0
1215 -1213 -1214 0
-1216 -1214 -1213 0
-1216 1214 1213 0
1216 -1214 1213 0
1216 1214 -1213 0
-1217 1205 -1196 0
-1217 -1205 1196 0
1217 1205 1196 0
1217 -1205 -1196 0
-1218 15 0
-1218 38 0
1218 -15 -38 0
-1219 1217 0
-1219 1218 0
1219 -1217 -1218 0
-1220 -1218 -1217 0
-1220 1218 1217 0
1220 -1218 1217 0
1220 1218 -1217 0
-1221 -1203 -1200 0
-1221 1203 1200 0
1221 -1203 1200 0
1221 1203 -1200 0
-1222 15 0
-1222 39 0
1222 -15 -39 0
-1223 1221 0
-1223 1222 0
1223 -1221 -1222 0
-1224 1220 0
-1224 1223 0
1224 -1220 -1223 0
-1225 -1219 0
-1225 -1224 0
1225 1219 1224 0
-1226 1216 0
-1226 -1225 0
1226 -1216 1225 0
-1227 -1215 0
-1227 -1226 0
1227 1215 1226 0
-1228 1227 -1212 0
-1228 -1227 1212 0
1228 1227 1212 0
1228 -1227 -1212 0
-1229 11 0
-1229 14 0
1229 -11 -14 0
-1230 -1229 -1228 0
-1230 1229 1228 0
1230 -1229 1228 0
1230 1229 -1228 0
-1231 1225 -1216 0
-1231 -1225 1216 0
1231 1225 1216 0
1231 -1225 -1216 0
-1232 14 0
-1232 38 0
1232 -14 -38 0
-1233 1231 0
-1233 1232 0
1233 -1231 -1232 0
-1234 -1232 -1231 0
-1234 1232 1231 0
1234 -1232 1231 0
1234 1232 -1231 0
-1235 -1223 -1220 0
-1235 1223 1220 0
1235 -1223 1220 0
1235 1223 -1220 0
-1236 14 0
-1236 39 0
1236 -14 -39 0
-1237 1235 0
-1237 1236 0
1237 -1235 -1236 0
-1238 1234 0
-1238 1237 0
1238 -1234 -1237 0
-1239 -1233 0
-1239 -1238 0
1239 1233 1238 0
-1240 1239 -1230 0
-1240 -1239 1230 0
1240 1239 1230 0
1240 -1239 -1230 0
-1241 13 0
-1241 38 0
1241 -13 -38 0
-1242 -1241 -1240 0
-1242 1241 1240 0
1242 -1241 1240 0
1242 1241 -1240 0
-1243 -1237 -1234 0
-1243 1237 1234 0
1243 -1237 1234 0
1243 1237 -1234 0
-1244 13 0
-1244 39 0
1244 -13 -39 0
-1245 1243 0
-1245 1244 0
1245 -1243 -1244 0
-1246 -1245 -1242 0
-1246 1245 1242 0
1246 -1245 1242 0
1246 1245 -1242 0
-1247 12 0
-1247 39 0
1247 -12 -39 0
-1248 -1247 -1246 0
-1248 1247 1246 0
1248 -1247 1246 0
1248 1247 -1246 0
-1249 35 0
-1249 1248 0
1249 -35 -1248 0
-1250 -1244 -1243 0
-1250 1244 1243 0
1250 -1244 1243 0
1250 1244 -1243 0
-1251 37 0
-1251 1250 0
1251 -37 -1250 0
-1252 -1251 -1249 0
-1252 1251 1249 0
1252 -1251 1249 0
1252 1251 -1249 0
-1253 35 0
-1253 1250 0
1253 -35 -1250 0
-1254 -1236 -1235 0
-1254 1236 1235 0
1254 -1236 1235 0
1254 1236 -1235 0
-1255 37 0
-1255 1254 0
1255 -37 -1254 0
-1256 1253 0
-1256 1255 0
1256 -1253 -1255 0
-1257 -1255 -1253 0
-1257 1255 1253 0
1257 -1255 1253 0
1257 1255 -1253 0
-1258 35 0
-1258 1254 0
1258 -35 -1254 0
-1259 -1222 -1221 0
-1259 1222 1221 0
1259 -1222 1221 0
1259 1222 -1221 0
-1260 37 0
-1260 1259 0
1260 -37 -1259 0
-1261 1258 0
-1261 1260 0
1261 -1258 -1260 0
-1262 -1260 -1258 0
-1262 1260 1258 0
1262 -1260 1258 0
1262 1260 -1258 0
-1263 35 0
-1263 1259 0
1263 -35 -1259 0
-1264 -1202 -1201 0
-1264 1202 1201 0
1264 -1202 1201 0
1264 1202 -1201 0
-1265 37 0
-1265 1264 0
1265 -37 -1264 0
-1266 1263 0
-1266 1265 0
1266 -1263 -1265 0
-1267 -1265 -1263 0
-1267 1265 1263 0
1267 -1265 1263 0
1267 1265 -1263 0
-1268 35 0
-1268 1264 0
1268 -35 -1264 0
-1269 -1176 -1175 0
-1269 1176 1175 0
1269 -1176 1175 0
1269 1176 -1175 0
-1270 37 0
-1270 1269 0
1270 -37 -1269 0
-1271 1268 0
-1271 1270 0
1271 -1268 -1270 0
-1272 -1270 -1268 0
-1272 1270 1268 0
1272 -1270 1268 0
1272 1270 -1268 0
-1273 35 0
-1273 1269 0
1273 -35 -1269 0
-1274 -1144 -1143 0
-1274 1144 1143 0
1274 -1144 1143 0
1274 1144 -1143 0
-1275 37 0
-1275 1274 0
1275 -37 -1274 0
-1276 1273 0
-1276 1275 0
1276 -1273 -1275 0
-1277 -1275 -1273 0
-1277 1275 1273 0
1277 -1275 1273 0
1277 1275 -1273 0
-1278 35 0
-1278 1274 0
1278 -35 -1274 0
-1279 -1106 -1105 0
-1279 1106 1105 0
1279 -1106 1105 0
1279 1106 -1105 0
-1280 37 0
-1280 1279 0
1280 -37 -1279 0
-1281 1278 0
-1281 1280 0
1281 -1278 -1280 0
-1282 -1280 -1278 0
-1282 1280 1278 0
1282 -1280 1278 0
1282 1280 -1278 0
-1283 35 0
-1283 1279 0
1283 -35 -1279 0
-1284 -1062 -1061 0
-1284 1062 1061 0
1284 -1062 1061 0
1284 1062 -1061 0
-1285 37 0
-1285 1284 0
1285 -37 -1284 0
-1286 1283 0
-1286 1285 0
1286 -1283 -1285 0
-1287 -1285 -1283 0
-1287 1285 1283 0
1287 -1285 1283 0
1287 1285 -1283 0
-1288 35 0
-1288 1284 0
1288 -35 -1284 0
-1289 -1012 -1011 0
-1289 1012 1011 0
1289 -1012 1011 0
1289 1012 -1011 0
-1290 37 0
-1290 1289 0
1290 -37 -1289 0
-1291 1288 0
-1291 1290 0
1291 -1288 -1290 0
-1292 -1290 -1288 0
-1292 1290 1288 0
1292 -1290 1288 0
1292 1290 -1288 0
-1293 35 0
-1293 1289 0
1293 -35 -1289 0
-1294 -956 -955 0
-1294 956 955 0
1294 -956 955 0
1294 956 -955 0
-1295 37 0
-1295 1294 0
1295 -37 -1294 0
-1296 1293 0
-1296 1295 0
1296 -1293 -1295 0
-1297 -1295 -1293 0
-1297 1295 1293 0
1297 -1295 1293 0
1297 1295 -1293 0
-1298 35 0
-1298 1294 0
1298 -35 -1294 0
-1299 -894 -893 0
-1299 894 893 0
1299 -894 893 0
1299 894 -893 0
-1300 37 0
-1300 1299 0
1300 -37 -1299 0
-1301 1298 0
-1301 1300 0
1301 -1298 -1300 0
-1302 -1300 -1298 0
-1302 1300 1298 0
1302 -1300 1298 0
1302 1300 -1298 0
-1303 35 0
-1303 1299 0
1303 -35 -1299 0
-1304 34 0
-1304 39 0
1304 -34 -39 0
-1305 37 0
-1305 1304 0
1305 -37 -1304 0
-1306 1303 0
-1306 1305 0
1306 -1303 -1305 0
-1307 1302 0
-1307 1306 0
1307 -1302 -1306 0
-1308 -1301 0
-1308 -1307 0
1308 1301 1307 0
-1309 1297 0
-1309 -1308 0
1309 -1297 1308 0
-1310 -1296 0
-1310 -1309 0
1310 1296 1309 0
-1311 1292 0
-1311 -1310 0
1311 -1292 1310 0
-1312 -1291 0
-1312 -1311 0
1312 1291 1311 0
-1313 1287 0
-1313 -1312 0
1313 -1287 1312 0
-1314 -1286 0
-1314 -1313 0
1314 1286 1313 0
-1315 1282 0
-1315 -1314 0
1315 -1282 1314 0
-1316 -1281 0
-1316 -1315 0
1316 1281 1315 0
-1317 1277 0
-1317 -1316 0
1317 -1277 1316 0
-1318 -1276 0
-1318 -1317 0
1318 1276 1317 0
-1319 1272 0
-1319 -1318 0
1319 -1272 1318 0
-1320 -1271 0
-1320 -1319 0
1320 1271 1319 0
-1321 1267 0
-1321 -1320 0
1321 -1267 1320 0
-1322 -1266 0
-1322 -1321 0
1322 1266 1321 0
-1323 1262 0
-1323 -1322 0
1323 -1262 1322 0
-1324 -1261 0
-1324 -1323 0
1324 1261 1323 0
-1325 1257 0
-1325 -1324 0
1325 -1257 1324 0
-1326 -1256 0
-1326 -1325 0
1326 1256 1325 0
-1327 1326 -1252 0
-1327 -1326 1252 0
1327 1326 1252 0
1327 -1326 -1252 0
-1328 33 0
-1328 1254 0
1328 -33 -1254 0
-1329 -1328 -1327 0
-1329 1328 1327 0
1329 -1328 1327 0
1329 1328 -1327 0
-1330 1324 -1257 0
-1330 -1324 1257 0
1330 1324 1257 0
1330 -1324 -1257 0
-1331 33 0
-1331 1259 0
1331 -33 -1259 0
-1332 1330 0
-1332 1331 0
1332 -1330 -1331 0
-1333 -1331 -1330 0
-1333 1331 1330 0
1333 -1331 1330 0
1333 1331 -1330 0
-1334 1322 -1262 0
-1334 -1322 1262 0
1334 1322 1262 0
1334 -1322 -1262 0
-1335 33 0
-1335 1264 0
1335 -33 -1264 0
-1336 1334 0
-1336 1335 0
1336 -1334 -1335 0
-1337 -1335 -1334 0
-1337 1335 1334 0
1337 -1335 1334 0
1337 1335 -1334 0
-1338 1320 -1267 0
-1338 -1320 1267 0
1338 1320 1267 0
1338 -1320 -1267 0
-1339 33 0
-1339 1269 0
1339 -33 -1269 0
-1340 1338 0
-1340 1339 0
1340 -1338 -1339 0
-1341 -1339 -1338 0
-1341 1339 1338 0
1341 -1339 1338 0
1341 1339 -1338 0
-1342 1318 -1272 0
-1342 -1318 1272 0
1342 1318 1272 0
1342 -1318 -1272 0
-1343 33 0
-1343 1274 0
1343 -33 -1274 0
-1344 1342 0
-1344 1343 0
1344 -1342 -1343 0
-1345 -1343 -1342 0
-1345 1343 1342 0
1345 -1343 1342 0
1345 1343 -1342 0
-1346 1316 -1277 0
-1346 -1316 1277 0
1346 1316 1277 0
1346 -1316 -1277 0
-1347 33 0
-1347 1279 0
1347 -33 -1279 0
-1348 1346 0
-1348 1347 0
1348 -1346 -1347 0
-1349 -1347 -1346 0
-1349 1347 1346 0
1349 -1347 1346 0
1349 1347 -1346 0
-1350 1314 -1282 0
-1350 -1314 1282 0
1350 1314 1282 0
1350 -1314 -1282 0
-1351 33 0
-1351 1284 0
1351 -33 -1284 0
-1352 1350 0
-1352 1351 0
1352 -1350 -1351 0
-1353 -1351 -1350 0
-1353 1351 1350 0
1353 -1351 1350 0
1353 1351 -1350 0
-1354 1312 -1287 0
-1354 -1312 1287 0
1354 1312 1287 0
1354 -1312 -1287 0
-1355 33 0
-1355 1289 0
1355 -33 -1289 0
-1356 1354 0
-1356 1355 0
1356 -1354 -1355 0
-1357 -1355 -1354 0
-1357 1355 1354 0
1357 -1355 1354 0
1357 1355 -1354 0
-1358 1310 -1292 0
-1358 -1310 1292 0
1358 1310 1292 0
1358 -1310 -1292 0
-1359 33 0
-1359 1294 0
1359 -33 -1294 0
-1360 1358 0
-1360 1359 0
1360 -1358 -1359 0
-1361 -1359 -1358 0
-1361 1359 1358 0
1361 -1359 1358 0
1361 1359 -1358 0
-1362 1308 -1297 0
-1362 -1308 1297 0
1362 1308 1297 0
1362 -1308 -1297 0
-1363 33 0
-1363 1299 0
1363 -33 -1299 0
-1364 1362 0
-1364 1363 0
1364 -1362 -1363 0
-1365 -1363 -1362 0
-1365 1363 1362 0
1365 -1363 1362 0
1365 1363 -1362 0
-1366 -1306 -1302 0
-1366 1306 1302 0
1366 -1306 1302 0
1366 1306 -1302 0
-1367 33 0
-1367 1304 0
1367 -33 -1304 0
-1368 1366 0
-1368 1367 0
1368 -1366 -1367 0
-1369 1365 0
-1369 1368 0
1369 -1365 -1368 0
-1370 -1364 0
-1370 -1369 0
1370 1364 1369 0
-1371 1361 0
-1371 -1370 0
1371 -1361 1370 0
-1372 -1360 0
-1372 -1371 0
1372 1360 1371 0
-1373 1357 0
-1373 -1372 0
1373 -1357 1372 0
-1374 -1356 0
-1374 -1373 0
1374 1356 1373 0
-1375 1353 0
-1375 -1374 0
1375 -1353 1374 0
-1376 -1352 0
-1376 -1375 0
1376 1352 1375 0
-1377 1349 0
-1377 -1376 0
1377 -1349 1376 0
-1378 -1348 0
-1378 -1377 0
1378 1348 1377 0
-1379 1345 0
-1379 -1378 0
1379 -1345 1378 0
-1380 -1344 0
-1380 -1379 0
1380 1344 1379 0
-1381 1341 0
-1381 -1380 0
1381 -1341 1380 0
-1382 -1340 0
-1382 -1381 0
1382 1340 1381 0
-1383 1337 0
-1383 -1382 0
1383 -1337 1382 0
-1384 -1336 0
-1384 -1383 0
1384 1336 1383 0
-1385 1333 0
-1385 -1384 0
1385 -1333 1384 0
-1386 -1332 0
-1386 -1385 0
1386 1332 1385 0
-1387 1386 -1329 0
-1387 -1386 1329 0
1387 1386 1329 0
1387 -1386 -1329 0
-1388 32 0
-1388 1259 0
1388 -32 -1259 0
-1389 -1388 -1387 0
-1389 1388 1387 0
1389 -1388 1387 0
1389 1388 -1387 0
-1390 1384 -1333 0
-1390 -1384 1333 0
1390 1384 1333 0
1390 -1384 -1333 0
-1391 32 0
-1391 1264 0
1391 -32 -1264 0
-1392 1390 0
-1392 1391 0
1392 -1390 -1391 0
-1393 -1391 -1390 0
-1393 1391 1390 0
1393 -1391 1390 0
1393 1391 -1390 0
-1394 1382 -1337 0
-1394 -1382 1337 0
1394 1382 1337 0
1394 -1382 -1337 0
-1395 32 0
-1395 1269 0
1395 -32 -1269 0
-1396 1394 0
-1396 1395 0
1396 -1394 -1395 0
-1397 -1395 -1394 0
-1397 1395 1394 0
1397 -1395 1394 0
1397 1395 -1394 0
-1398 1380 -1341 0
-1398 -1380 1341 0
1398 1380 1341 0
1398 -1380 -1341 0
-1399 32 0
-1399 1274 0
1399 -32 -1274 0
-1400 1398 0
-1400 1399 0
1400 -1398 -1399 0
-1401 -1399 -1398 0
-1401 1399 1398 0
1401 -1399 1398 0
1401 1399 -1398 0
-1402 1378 -1345 0
-1402 -1378 1345 0
1402 1378 1345 0
1402 -1378 -1345 0
-1403 32 0
-1403 1279 0
1403 -32 -1279 0
-1404 1402 0
-1404 1403 0
1404 -1402 -1403 0
-1405 -1403 -1402 0
-1405 1403 1402 0
1405 -1403 1402 0
1405 1403 -1402 0
-1406 1376 -1349 0
-1406 -1376 1349 0
1406 1376 1349 0
1406 -1376 -1349 0
-1407 32 0
-1407 1284 0
1407 -32 -1284 0
-1408 1406 0
-1408 1407 0
1408 -1406 -1407 0
-1409 -1407 -1406 0
-1409 1407 1406 0
1409 -1407 1406 0
1409 1407 -1406 0
-1410 1374 -1353 0
-1410 -1374 1353 0
1410 1374 1353 0
1410 -1374 -1353 0
-1411 32 0
-1411 1289 0
1411 -32 -1289 0
-1412 1410 0
-1412 1411 0
1412 -1410 -1411 0
-1413 -1411 -1410 0
-1413 1411 1410 0
1413 -1411 1410 0
1413 1411 -1410 0
-1414 1372 -1357 0
-1414 -1372 1357 0
1414 1372 1357 0
1414 -1372 -1357 0
-1415 32 0
-1415 1294 0
1415 -32 -1294 0
-1416 1414 0
-1416 1415 0
1416 -1414 -1415 0
-1417 -1415 -1414 0
-1417 1415 1414 0
1417 -1415 1414 0
1417 1415 -1414 0
-1418 1370 -1361 0
-1418 -1370 1361 0
1418 1370 1361 0
1418 -1370 -1361 0
-1419 32 0
-1419 1299 0
1419 -32 -1299 0
-1420 1418 0
-1420 1419 0
1420 -1418 -1419 0
-1421 -1419 -1418 0
-1421 1419 1418 0
1421 -1419 1418 0
1421 1419 -1418 0
-1422 -1368 -1365 0
-1422 1368 1365 0
1422 -1368 1365 0
1422 1368 -1365 0
-1423 32 0
-1423 1304 0
1423 -32 -1304 0
-1424 1422 0
-1424 1423 0
1424 -1422 -1423 0
-1425 1421 0
-1425 1424 0
1425 -1421 -1424 0
-1426 -1420 0
-1426 -1425 0
1426 1420 1425 0
-1427 1417 0
-1427 -1426 0
1427 -1417 1426 0
-1428 -1416 0
-1428 -1427 0
1428 1416 1427 0
-1429 1413 0
-1429 -1428 0
1429 -1413 1428 0
-1430 -1412 0
-1430 -1429 0
1430 1412 1429 0
-1431 1409 0
-1431 -1430 0
1431 -1409 1430 0
-1432 -1408 0
-1432 -1431 0
1432 1408 1431 0
-1433 1405 0
-1433 -1432 0
1433 -1405 1432 0
-1434 -1404 0
-1434 -1433 0
1434 1404 1433 0
-1435 1401 0
-1435 -1434 0
1435 -1401 1434 0
-1436 -1400 0
-1436 -1435 0
1436 1400 1435 0
-1437 1397 0
-1437 -1436 0
1437 -1397 1436 0
-1438 -1396 0
-1438 -1437 0
1438 1396 1437 0
-1439 1393 0
-1439 -1438 0
1439 -1393 1438 0
-1440 -1392 0
-1440 -1439 0
1440 1392 1439 0
-1441 1440 -1389 0
-1441 -1440 1389 0
1441 1440 1389 0
1441 -1440 -1389 0
-1442 31 0
-1442 1264 0
1442 -31 -1264 0
-1443 -1442 -1441 0
-1443 1442 1441 0
1443 -1442 1441 0
1443 1442 -1441 0
-1444 1438 -1393 0
-1444 -1438 1393 0
1444 1438 1393 0
1444 -1438 -1393 0
-1445 31 0
-1445 1269 0
1445 -31 -1269 0
-1446 1444 0
-1446 1445 0
1446 -1444 -1445 0
-1447 -1445 -1444 0
-1447 1445 1444 0
1447 -1445 1444 0
1447 1445 -1444 0
-1448 1436 -1397 0
-1448 -1436 1397 0
1448 1436 1397 0
1448 -1436 -1397 0
-1449 31 0
-1449 1274 0
1449 -31 -1274 0
-1450 1448 0
-1450 1449 0
1450 -1448 -1449 0
-1451 -1449 -1448 0
-1451 1449 1448 0
1451 -1449 1448 0
1451 1449 -1448 0
-1452 1434 -1401 0
-1452 -1434 1401 0
1452 1434 1401 0
1452 -1434 -1401 0
-1453 31 0
-1453 1279 0
1453 -31 -1279 0
-1454 1452 0
-1454 1453 0
1454 -1452 -1453 0
-1455 -1453 -1452 0
-1455 1453 1452 0
1455 -1453 1452 0
1455 1453 -1452 0
-1456 1432 -1405 0
-1456 -1432 1405 0
1456 1432 1405 0
1456 -1432 -1405 0
-1457 31 0
-1457 1284 0
1457 -31 -1284 0
-1458 1456 0
-1458 1457 0
1458 -1456 -1457 0
-1459 -1457 -1456 0
-1459 1457 1456 0
1459 -1457 1456 0
1459 1457 -1456 0
-1460 1430 -1409 0
-1460 -1430 1409 0
1460 1430 1409 0
1460 -1430 -1409 0
-1461 31 0
-1461 1289 0
1461 -31 -1289 0
-1462 1460 0
-1462 1461 0
1462 -1460 -1461 0
-1463 -1461 -1460 0
-1463 1461 1460 0
1463 -1461 1460 0
1463 1461 -1460 0
-1464 1428 -1413 0
-1464 -1428 1413 0
1464 1428 1413 0
1464 -1428 -1413 0
-1465 31 0
-1465 1294 0
1465 -31 -1294 0
-1466 1464 0
-1466 1465 0
1466 -1464 -1465 0
-1467 -1465 -1464 0
-1467 1465 1464 0
1467 -1465 1464 0
1467 1465 -1464 0
-1468 1426 -1417 0
-1468 -1426 1417 0
1468 1426 1417 0
1468 -1426 -1417 0
-1469 31 0
-1469 1299 0
1469 -31 -1299 0
-1470 1468 0
-1470 1469 0
1470 -1468 -1469 0
-1471 -1469 -1468 0
-1471 1469 1468 0
1471 -1469 1468 0
1471 1469 -1468 0
-1472 -1424 -1421 0
-1472 1424 1421 0
1472 -1424 1421 0
1472 1424 -1421 0
-1473 31 0
-1473 1304 0
1473 -31 -1304 0
-1474 1472 0
-1474 1473 0
1474 -1472 -1473 0
-1475 1471 0
-1475 1474 0
1475 -1471 -1474 0
-1476 -1470 0
-1476 -1475 0
1476 1470 1475 0
-1477 1467 0
-1477 -1476 0
1477 -1467 1476 0
-1478 -1466 0
-1478 -1477 0
1478 1466 1477 0
-1479 1463 0
-1479 -1478 0
1479 -1463 1478 0
-1480 -1462 0
-1480 -1479 0
1480 1462 1479 0
-1481 1459 0
-1481 -1480 0
1481 -1459 1480 0
-1482 -1458 0
-1482 -1481 0
1482 1458 1481 0
-1483 1455 0
-1483 -1482 0
1483 -1455 1482 0
-1484 -1454 0
-1484 -1483 0
1484 1454 1483 0
-1485 1451 0
-1485 -1484 0
1485 -1451 1484 0
-1486 -1450 0
-1486 -1485 0
1486 1450 1485 0
-1487 1447 0
-1487 -1486 0
1487 -1447 1486 0
-1488 -1446 0
-1488 -1487 0
1488 1446 1487 0
-1489 1488 -1443 0
-1489 -1488 1443 0
1489 1488 1443 0
1489 -1488 -1443 0
-1490 30 0
-1490 1269 0
1490 -30 -1269 0
-1491 -1490 -1489 0
-1491 1490 1489 0
1491 -1490 1489 0
1491 1490 -1489 0
-1492 1486 -1447 0
-1492 -1486 1447 0
1492 1486 1447 0
1492 -1486 -1447 0
-1493 30 0
-1493 1274 0
1493 -30 -1274 0
-1494 1492 0
-1494 1493 0
1494 -1492 -1493 0
-1495 -1493 -1492 0
-1495 1493 1492 0
1495 -1493 1492 0
1495 1493 -1492 0
-1496 1484 -1451 0
-1496 -1484 1451 0
1496 1484 1451 0
1496 -1484 -1451 0
-1497 30 0
-1497 1279 0
1497 -30 -1279 0
-1498 1496 0
-1498 1497 0
1498 -1496 -1497 0
-1499 -1497 -1496 0
-1499 1497 1496 0
1499 -1497 1496 0
1499 1497 -1496 0
-1500 1482 -1455 0
-1500 -1482 1455 0
1500 1482 1455 0
1500 -1482 -1455 0
-1501 30 0
-1501 1284 0
1501 -30 -1284 0
-1502 1500 0
-1502 1501 0
1502 -1500 -1501 0
-1503 -1501 -1500 0
-1503 1501 1500 0
1503 -1501 1500 0
1503 1501 -1500 0
-1504 1480 -1459 0
-1504 -1480 1459 0
1504 1480 1459 0
1504 -1480 -1459 0
-1505 30 0
-1505 1289 0
1505 -30 -1289 0
-1506 1504 0
-1506 1505 0
1506 -1504 -1505 0
-1507 -1505 -1504 0
-1507 1505 1504 0
1507 -1505 1504 0
1507 1505 -1504 0
-1508 1478 -1463 0
-1508 -1478 1463 0
1508 1478 1463 0
1508 -1478 -1463 0
-1509 30 0
-1509 1294 0
1509 -30 -1294 0
-1510 1508 0
-1510 1509 0
1510 -1508 -1509 0
-1511 -1509 -1508 0
-1511 1509 1508 0
1511 -1509 1508 0
1511 1509 -1508 0
-1512 1476 -1467 0
-1512 -1476 1467 0
1512 1476 1467 0
1512 -1476 -1467 0
-1513 30 0
-1513 1299 0
1513 -30 -1299 0
-1514 1512 0
-1514 1513 0
1514 -1512 -1513 0
-1515 -1513 -1512 0
-1515 1513 1512 0
1515 -1513 1512 0
1515 1513 -1512 0
-1516 -1474 -1471 0
-1516 1474 1471 0
1516 -1474 1471 0
1516 1474 -1471 0
-1517 30 0
-1517 1304 0
1517 -30 -1304 0
-1518 1516 0
-1518 1517 0
1518 -1516 -1517 0
-1519 1515 0
-1519 1518 0
1519 -1515 -1518 0
-1520 -1514 0
-1520 -1519 0
1520 1514 1519 0
-1521 1511 0
-1521 -1520 0
1521 -1511 1520 0
-1522 -1510 0
-1522 -1521 0
1522 1510 1521 0
-1523 1507 0
-1523 -1522 0
1523 -1507 1522 0
-1524 -1506 0
-1524 -1523 0
1524 1506 1523 0
-1525 1503 0
-1525 -1524 0
1525 -1503 1524 0
-1526 -1502 0
-1526 -1525 0
1526 1502 1525 0
-1527 1499 0
-1527 -1526 0
1527 -1499 1526 0
-1528 -1498 0
-1528 -1527 0
1528 1498 1527 0
-1529 1495 0
-1529 -1528 0
1529 -1495 1528 0
-1530 -1494 0
-1530 -1529 0
1530 1494 1529 0
-1531 1530 -1491 0
-1531 -1530 1491 0
1531 1530 1491 0
1531 -1530 -1491 0
-1532 29 0
-1532 1274 0
1532 -29 -1274 0
-1533 -1532 -1531 0
-1533 1532 1531 0
1533 -1532 1531 0
1533 1532 -1531 0
-1534 1528 -1495 0
-1534 -1528 1495 0
1534 1528 1495 0
1534 -1528 -1495 0
-1535 29 0
-1535 1279 0
1535 -29 -1279 0
-1536 1534 0
-1536 1535 0
1536 -1534 -1535 0
-1537 -1535 -1534 0
-1537 1535 1534 0
1537 -1535 1534 0
1537 1535 -1534 0
-1538 1526 -1499 0
-1538 -1526 1499 0
1538 1526 1499 0
1538 -1526 -1499 0
-1539 29 0
-1539 1284 0
1539 -29 -1284 0
-1540 1538 0
-1540 1539 0
1540 -1538 -1539 0
-1541 -1539 -1538 0
-1541 1539 1538 0
1541 -1539 1538 0
1541 1539 -1538 0
-1542 1524 -1503 0
-1542 -1524 1503 0
1542 1524 1503 0
1542 -1524 -1503 0
-1543 29 0
-1543 1289 0
1543 -29 -1289 0
-1544 1542 0
-1544 1543 0
1544 -1542 -1543 0
-1545 -1543 -1542 0
-1545 1543 1542 0
1545 -1543 1542 0
1545 1543 -1542 0
-1546 1522 -1507 0
-1546 -1522 1507 0
1546 1522 1507 0
1546 -1522 -1507 0
-1547 29 0
-1547 1294 0
1547 -29 -1294 0
-1548 1546 0
-1548 1547 0
1548 -1546 -1547 0
-1549 -1547 -1546 0
-1549 1547 1546 0
1549 -1547 1546 0
1549 1547 -1546 0
-1550 1520 -1511 0
-1550 -1520 1511 0
1550 1520 1511 0
1550 -1520 -1511 0
-1551 29 0
-1551 1299 0
1551 -29 -1299 0
-1552 1550 0
-1552 1551 0
1552 -1550 -1551 0
-1553 -1551 -1550 0
-1553 1551 1550 0
1553 -1551 1550 0
1553 1551 -1550 0
-1554 -1518 -1515 0
-1554 1518 1515 0
1554 -1518 1515 0
1554 1518 -1515 0
-1555 29 0
-1555 1304 0
1555 -29 -1304 0
-1556 1554 0
-1556 1555 0
1556 -1554 -1555 0
-1557 1553 0
-1557 1556 0
1557 -1553 -1556 0
-1558 -1552 0
-1558 -1557 0
1558 1552 1557 0
-1559 1549 0
-1559 -1558 0
1559 -1549 1558 0
-1560 -1548 0
-1560 -1559 0
1560 1548 1559 0
-1561 1545 0
-1561 -1560 0
1561 -1545 1560 0
-1562 -1544 0
-1562 -1561 0
1562 1544 1561 0
-1563 1541 0
-1563 -1562 0
1563 -1541 1562 0
-1564 -1540 0
-1564 -1563 0
1564 1540 1563 0
-1565 1537 0
-1565 -1564 0
1565 -1537 1564 0
-1566 -1536 0
-1566 -1565 0
1566 1536 1565 0
-1567 1566 -1533 0
-1567 -1566 1533 0
1567 1566 1533 0
1567 -1566 -1533 0
-1568 28 0
-1568 1279 0
1568 -28 -1279 0
-1569 -1568 -1567 0
-1569 1568 1567 0
1569 -1568 1567 0
1569 1568 -1567 0
-1570 1564 -1537 0
-1570 -1564 1537 0
1570 1564 1537 0
1570 -1564 -1537 0
-1571 28 0
-1571 1284 0
1571 -28 -1284 0
-1572 1570 0
-1572 1571 0
1572 -1570 -1571 0
-1573 -1571 -1570 0
-1573 1571 1570 0
1573 -1571 1570 0
1573 1571 -1570 0
-1574 1562 -1541 0
-1574 -1562 1541 0
1574 1562 1541 0
1574 -1562 -1541 0
-1575 28 0
-1575 1289 0
1575 -28 -1289 0
-1576 1574 0
-1576 1575 0
1576 -1574 -1575 0
-1577 -1575 -1574 0
-1577 1575 1574 0
1577 -1575 1574 0
1577 1575 -1574 0
-1578 1560 -1545 0
-1578 -1560 1545 0
1578 1560 1545 0
1578 -1560 -1545 0
-1579 28 0
-1579 1294 0
1579 -28 -1294 0
-1580 1578 0
-1580 1579 0
1580 -1578 -1579 0
-1581 -1579 -1578 0
-1581 1579 1578 0
1581 -1579 1578 0
1581 1579 -1578 0
-1582 1558 -1549 0
-1582 -1558 1549 0
1582 1558 1549 0
1582 -1558 -1549 0
-1583 28 0
-1583 1299 0
1583 -28 -1299 0
-1584 1582 0
-1584 1583 0
1584 -1582 -1583 0
-1585 -1583 -1582 0
-1585 1583 1582 0
1585 -1583 1582 0
1585 1583 -1582 0
-1586 -1556 -1553 0
-1586 1556 1553 0
1586 -1556 1553 0
1586 1556 -1553 0
-1587 28 0
-1587 1304 0
1587 -28 -1304 0
-1588 1586 0
-1588 1587 0
1588 -1586 -1587 0
-1589 1585 0
-1589 1588 0
1589 -1585 -1588 0
-1590 -1584 0
-1590 -1589 0
1590 1584 1589 0
-1591 1581 0
-1591 -1590 0
1591 -1581 1590 0
-1592 -1580 0
-1592 -1591 0
1592 1580 1591 0
-1593 1577 0
-1593 -1592 0
1593 -1577 1592 0
-1594 -1576 0
-1594 -1593 0
1594 1576 1593 0
-1595 1573 0
-1595 -1594 0
1595 -1573 1594 0
-1596 -1572 0
-1596 -1595 0
1596 1572 1595 0
-1597 1596 -1569 0
-1597 -1596 1569 0
1597 1596 1569 0
1597 -1596 -1569 0
-1598 27 0
-1598 1284 0
1598 -27 -1284 0
-1599 -1598 -1597 0
-1599 1598 1597 0
1599 -1598 1597 0
1599 1598 -1597 0
-1600 1594 -1573 0
-1600 -1594 1573 0
1600 1594 1573 0
1600 -1594 -1573 0
-1601 27 0
-1601 1289 0
1601 -27 -1289 0
-1602 1600 0
-1602 1601 0
1602 -1600 -1601 0
-1603 -1601 -1600 0
-1603 1601 1600 0
1603 -1601 1600 0
1603 1601 -1600 0
-1604 1592 -1577 0
-1604 -1592 1577 0
1604 1592 1577 0
1604 -1592 -1577 0
-1605 27 0
-1605 1294 0
1605 -27 -1294 0
-1606 1604 0
-1606 1605 0
1606 -1604 -1605 0
-1607 -1605 -1604 0
-1607 1605 1604 0
1607 -1605 1604 0
1607 1605 -1604 0
-1608 1590 -1581 0
-1608 -1590 1581 0
1608 1590 1581 0
1608 -1590 -1581 0
-1609 27 0
-1609 1299 0
1609 -27 -1299 0
-1610 1608 0
-1610 1609 0
1610 -1608 -1609 0
-1611 -1609 -1608 0
-1611 1609 1608 0
1611 -1609 1608 0
1611 1609 -1608 0
-1612 -1588 -1585 0
-1612 1588 1585 0
1612 -1588 1585 0
1612 1588 -1585 0
-1613 27 0
-1613 1304 0
1613 -27 -1304 0
-1614 1612 0
-1614 1613 0
1614 -1612 -1613 0
-1615 1611 0
-1615 1614 0
1615 -1611 -1614 0
-1616 -1610 0
-1616 -1615 0
1616 1610 1615 0
-1617 1607 0
-1617 -1616 0
1617 -1607 1616 0
-1618 -1606 0
-1618 -1617 0
1618 1606 1617 0
-1619 1603 0
-1619 -1618 0
1619 -1603 1618 0
-1620 -1602 0
-1620 -1619 0
1620 1602 1619 0
-1621 1620 -1599 0
-1621 -1620 1599 0
1621 1620 1599 0
1621 -1620 -1599 0
-1622 26 0
-1622 1289 0
1622 -26 -1289 0
-1623 -1622 -1621 0
-1623 1622 1621 0
1623 -1622 1621 0
1623 1622 -1621 0
-1624 1618 -1603 0
-1624 -1618 1603 0
1624 1618 1603 0
1624 -1618 -1603 0
-1625 26 0
-1625 1294 0
1625 -26 -1294 0
-1626 1624 0
-1626 1625 0
1626 -1624 -1625 0
-1627 -1625 -1624 0
-1627 1625 1624 0
1627 -1625 1624 0
1627 1625 -1624 0
-1628 1616 -1607 0
-1628 -1616 1607 0
1628 1616 1607 0
1628 -1616 -1607 0
-1629 26 0
-1629 1299 0
1629 -26 -1299 0
-1630 1628 0
-1630 1629 0
1630 -1628 -1629 0
-1631 -1629 -1628 0
-1631 1629 1628 0
1631 -1629 1628 0
1631 1629 -1628 0
-1632 -1614 -1611 0
-1632 1614 1611 0
1632 -1614 1611 0
1632 1614 -1611 0
-1633 26 0
-1633 1304 0
1633 -26 -1304 0
-1634 1632 0
-1634 1633 0
1634 -1632 -1633 0
-1635 1631 0
-1635 1634 0
1635 -1631 -1634 0
-1636 -1630 0
-1636 -1635 0
1636 1630 1635 0
-1637 1627 0
-1637 -1636 0
1637 -1627 1636 0
-1638 -1626 0
-1638 -1637 0
1638 1626 1637 0
-1639 1638 -1623 0
-1639 -1638 1623 0
1639 1638 1623 0
1639 -1638 -1623 0
-1640 25 0
-1640 1294 0
1640 -25 -1294 0
-1641 -1640 -1639 0
-1641 1640 1639 0
1641 -1640 1639 0
1641 1640 -1639 0
-1642 1636 -1627 0
-1642 -1636 1627 0
1642 1636 1627 0
1642 -1636 -1627 0
-1643 25 0
-1643 1299 0
1643 -25 -1299 0
-1644 1642 0
-1644 1643 0
1644 -1642 -1643 0
-1645 -1643 -1642 0
-1645 1643 1642 0
1645 -1643 1642 0
1645 1643 -1642 0
-1646 -1634 -1631 0
-1646 1634 1631 0
1646 -1634 1631 0
1646 1634 -1631 0
-1647 25 0
-1647 1304 0
1647 -25 -1304 0
-1648 1646 0
-1648 1647 0
1648 -1646 -1647 0
-1649 1645 0
-1649 1648 0
1649 -1645 -1648 0
-1650 -1644 0
-1650 -1649 0
1650 1644 1649 0
-1651 1650 -1641 0
-1651 -1650 1641 0
1651 1650 1641 0
1651 -1650 -1641 0
-1652 24 0
-1652 1299 0
1652 -24 -1299 0
-1653 -1652 -1651 0
-1653 1652 1651 0
1653 -1652 1651 0
1653 1652 -1651 0
-1654 -1648 -1645 0
-1654 1648 1645 0
1654 -1648 1645 0
1654 1648 -1645 0
-1655 24 0
-1655 1304 0
1655 -24 -1304 0
-1656 1654 0
-1656 1655 0
1656 -1654 -1655 0
-1657 -1656 -1653 0
-1657 1656 1653 0
1657 -1656 1653 0
1657 1656 -1653 0
-1658 23 0
-1658 1304 0
1658 -23 -1304 0
-1659 -1658 -1657 0
-1659 1658 1657 0
1659 -1658 1657 0
1659 1658 -1657 0
1660 1659 849 0
1660 -1659 -849 0
-1661 -799 -798 0
-1661 799 798 0
1661 -799 798 0
1661 799 -798 0
-1662 -1655 -1654 0
-1662 1655 1654 0
1662 -1655 1654 0
1662 1655 -1654 0
1663 1662 1661 0
1663 -1662 -1661 0
1664 -1660 -1663 0
-1665 -728 -727 0
-1665 728 727 0
1665 -728 727 0
1665 728 -727 0
-1666 -1647 -1646 0
-1666 1647 1646 0
1666 -1647 1646 0
1666 1647 -1646 0
1667 1666 1665 0
1667 -1666 -1665 0
1668 -1664 -1667 0
-1669 -657 -656 0
-1669 657 656 0
1669 -657 656 0
1669 657 -656 0
-1670 -1633 -1632 0
-1670 1633 1632 0
1670 -1633 1632 0
1670 1633 -1632 0
1671 1670 1669 0
1671 -1670 -1669 0
1672 -1668 -1671 0
-1673 -586 -585 0
-1673 586 585 0
1673 -586 585 0
1673 586 -585 0
-1674 -1613 -1612 0
-1674 1613 1612 0
1674 -1613 1612 0
1674 1613 -1612 0
1675 1674 1673 0
1675 -1674 -1673 0
1676 -1672 -1675 0
-1677 -515 -514 0
-1677 515 514 0
1677 -515 514 0
1677 515 -514 0
-1678 -1587 -1586 0
-1678 1587 1586 0
1678 -1587 1586 0
1678 1587 -1586 0
1679 1678 1677 0
1679 -1678 -1677 0
1680 -1676 -1679 0
-1681 -444 -443 0
-1681 444 443 0
1681 -444 443 0
1681 444 -443 0
-1682 -1555 -1554 0
-1682 1555 1554 0
1682 -1555 1554 0
1682 1555 -1554 0
1683 1682 1681 0
1683 -1682 -1681 0
1684 -1680 -1683 0
-1685 -373 -372 0
-1685 373 372 0
1685 -373 372 0
1685 373 -372 0
-1686 -1517 -1516 0
-1686 1517 1516 0
1686 -1517 1516 0
1686 1517 -1516 0
1687 1686 1685 0
1687 -1686 -1685 0
1688 -1684 -1687 0
-1689 -302 -301 0
-1689 302 301 0
1689 -302 301 0
1689 302 -301 0
-1690 -1473 -1472 0
-1690 1473 1472 0
1690 -1473 1472 0
1690 1473 -1472 0
1691 1690 1689 0
1691 -1690 -1689 0
1692 -1688 -1691 0
-1693 -231 -230 0
-1693 231 230 0
1693 -231 230 0
1693 231 -230 0
-1694 -1423 -1422 0
-1694 1423 1422 0
1694 -1423 1422 0
1694 1423 -1422 0
1695 1694 1693 0
1695 -1694 -1693 0
1696 -1692 -1695 0
-1697 -160 -159 0
-1697 160 159 0
1697 -160 159 0
1697 160 -159 0
-1698 -1367 -1366 0
-1698 1367 1366 0
1698 -1367 1366 0
1698 1367 -1366 0
1699 1698 1697 0
1699 -1698 -1697 0
1700 -1696 -1699 0
-1701 -89 -88 0
-1701 89 88 0
1701 -89 88 0
1701 89 -88 0
-1702 -1305 -1303 0
-1702 1305 1303 0
1702 -1305 1303 0
1702 1305 -1303 0
1703 1702 1701 0
1703 -1702 -1701 0
1704 -1700 -1703 0
-1705 39 0
-1705 40 0
1705 -39 -40 0
-1706 35 0
-1706 1304 0
1706 -35 -1304 0
1707 1706 1705 0
1707 -1706 -1705 0
1708 -1704 -1707 0
-1709 -32 0
-1709 -33 0
1710 -31 1709 0
1711 -30 -1710 0
-1712 -29 0
-1712 -1711 0
1713 -28 1712 0
1714 -27 -1713 0
-1715 -26 0
-1715 -1714 0
-1716 -25 0
-1716 1715 0
1717 -24 1716 0
1718 -23 -1717 0
-1719 -10 0
-1719 -11 0
1720 -9 1719 0
1721 -8 -1720 0
-1722 -7 0
-1722 -1721 0
1723 -6 1722 0
1724 -5 -1723 0
-1725 -4 0
-1725 -1724 0
-1726 -3 0
-1726 1725 0
1727 -2 1726 0
1728 -1 -1727 0
-1729 -21 0
-1729 -22 0
1730 -20 1729 0
1731 -19 -1730 0
-1732 -18 0
-1732 -1731 0
1733 -17 1732 0
1734 -16 -1733 0
-1735 -15 0
-1735 -1734 0
-1736 -14 0
-1736 1735 0
1737 -13 1736 0
1738 -12 -1737 0
-1739 -1728 0
-1739 -1738 0
-1740 -1718 0
-1740 1739 0
-1741 -1708 0
-1741 1740 0
1741 0
