p cnf 87 206
17 13 1 0
17 -13 -1 0
18 14 10 0
18 -14 -10 0
19 -17 -18 0
20 15 11 0
20 -15 -11 0
21 -19 -20 0
22 16 12 0
22 -16 -12 0
23 -21 -22 0
-24 2 0
-24 3 0
24 -2 -3 0
-25 4 0
-25 5 0
25 -4 -5 0
-26 -25 -24 0
-26 25 24 0
26 -25 24 0
26 25 -24 0
-27 3 0
-27 4 0
27 -3 -4 0
-28 5 0
-28 6 0
28 -5 -6 0
-29 27 0
-29 28 0
29 -27 -28 0
-30 -28 -27 0
-30 28 27 0
30 -28 27 0
30 28 -27 0
-31 3 0
-31 6 0
31 -3 -6 0
-32 5 0
-32 7 0
32 -5 -7 0
-33 31 0
-33 32 0
33 -31 -32 0
-34 30 0
-34 33 0
34 -30 -33 0
-35 -29 0
-35 -34 0
35 29 34 0
-36 35 -26 0
-36 -35 26 0
36 35 26 0
36 -35 -26 0
-37 6 0
-37 8 0
37 -6 -8 0
-38 -37 -36 0
-38 37 36 0
38 -37 36 0
38 37 -36 0
-39 -33 -30 0
-39 33 30 0
39 -33 30 0
39 33 -30 0
-40 7 0
-40 8 0
40 -7 -8 0
-41 39 0
-41 40 0
41 -39 -40 0
-42 -41 -38 0
-42 41 38 0
42 -41 38 0
42 41 -38 0
-43 7 0
-43 9 0
43 -7 -9 0
-44 -43 -42 0
-44 43 42 0
44 -43 42 0
44 43 -42 0
-45 44 -1 0
-45 -44 1 0
-46 -40 -39 0
-46 40 39 0
46 -40 39 0
46 40 -39 0
-47 46 -10 0
-47 -46 10 0
-48 45 0
-48 47 0
-49 -32 -31 0
-49 32 31 0
49 -32 31 0
49 32 -31 0
-50 49 -11 0
-50 -49 11 0
-51 48 0
-51 50 0
-52 3 0
-52 7 0
52 -3 -7 0
-53 52 -12 0
-53 -52 12 0
-54 51 0
-54 53 0
-55 7 0
-55 9 0
55 -7 -9 0
-56 6 0
-56 8 0
56 -6 -8 0
-57 -56 -55 0
-57 56 55 0
57 -56 55 0
57 56 -55 0
-58 7 0
-58 8 0
58 -7 -8 0
-59 5 0
-59 6 0
59 -5 -6 0
-60 58 0
-60 59 0
60 -58 -59 0
-61 -59 -58 0
-61 59 58 0
61 -59 58 0
61 59 -58 0
-62 5 0
-62 7 0
62 -5 -7 0
-63 3 0
-63 6 0
63 -3 -6 0
-64 62 0
-64 63 0
64 -62 -63 0
-65 61 0
-65 64 0
65 -61 -64 0
-66 -60 0
-66 -65 0
66 60 65 0
-67 66 -57 0
-67 -66 57 0
67 66 57 0
67 -66 -57 0
-68 4 0
-68 5 0
68 -4 -5 0
-69 -68 -67 0
-69 68 67 0
69 -68 67 0
69 68 -67 0
-70 -64 -61 0
-70 64 61 0
70 -64 61 0
70 64 -61 0
-71 3 0
-71 4 0
71 -3 -4 0
-72 70 0
-72 71 0
72 -70 -71 0
-73 -72 -69 0
-73 72 69 0
73 -72 69 0
73 72 -69 0
-74 2 0
-74 3 0
74 -2 -3 0
-75 -74 -73 0
-75 74 73 0
75 -74 73 0
75 74 -73 0
-76 75 -13 0
-76 -75 13 0
-77 -71 -70 0
-77 71 70 0
77 -71 70 0
77 71 -70 0
-78 77 -14 0
-78 -77 14 0
-79 76 0
-79 78 0
-80 -63 -62 0
-80 63 62 0
80 -63 62 0
80 63 -62 0
-81 80 -15 0
-81 -80 15 0
-82 79 0
-82 81 0
-83 3 0
-83 7 0
83 -3 -7 0
-84 83 -16 0
-84 -83 16 0
-85 82 0
-85 84 0
-86 54 0
-86 85 0
-87 -23 0
-87 86 0
87 0
