p cnf 67 172
-10 6 0
-10 9 0
10 -6 -9 0
-11 1 0
-11 10 0
11 -1 -10 0
-12 5 0
-12 9 0
12 -5 -9 0
-13 6 0
-13 8 0
13 -6 -8 0
-14 12 0
-14 13 0
14 -12 -13 0
-15 -13 -12 0
-15 13 12 0
15 -13 12 0
15 13 -12 0
-16 2 0
-16 15 0
16 -2 -15 0
-17 -16 -11 0
-17 16 11 0
17 -16 11 0
17 16 -11 0
-18 2 0
-18 10 0
18 -2 -10 0
-19 3 0
-19 15 0
19 -3 -15 0
-20 18 0
-20 19 0
20 -18 -19 0
-21 -20 -17 0
-21 20 17 0
21 -20 17 0
21 20 -17 0
-22 4 0
-22 9 0
22 -4 -9 0
-23 5 0
-23 8 0
23 -5 -8 0
-24 -23 -22 0
-24 23 22 0
24 -23 22 0
24 23 -22 0
-25 -24 -14 0
-25 24 14 0
25 -24 14 0
25 24 -14 0
-26 6 0
-26 7 0
26 -6 -7 0
-27 -26 -25 0
-27 26 25 0
27 -26 25 0
27 26 -25 0
-28 3 0
-28 27 0
28 -3 -27 0
-29 -28 -21 0
-29 28 21 0
29 -28 21 0
29 28 -21 0
-30 1 0
-30 6 0
30 -1 -6 0
-31 2 0
-31 5 0
31 -2 -5 0
-32 -31 -30 0
-32 31 30 0
32 -31 30 0
32 31 -30 0
-33 2 0
-33 6 0
33 -2 -6 0
-34 3 0
-34 5 0
34 -3 -5 0
-35 33 0
-35 34 0
35 -33 -34 0
-36 -35 -32 0
-36 35 32 0
36 -35 32 0
36 35 -32 0
-37 3 0
-37 4 0
37 -3 -4 0
-38 -37 -36 0
-38 37 36 0
38 -37 36 0
38 37 -36 0
-39 9 0
-39 38 0
39 -9 -38 0
-40 -34 -33 0
-40 34 33 0
40 -34 33 0
40 34 -33 0
-41 8 0
-41 40 0
41 -8 -40 0
-42 -41 -39 0
-42 41 39 0
42 -41 39 0
42 41 -39 0
-43 9 0
-43 40 0
43 -9 -40 0
-44 3 0
-44 6 0
44 -3 -6 0
-45 8 0
-45 44 0
45 -8 -44 0
-46 43 0
-46 45 0
46 -43 -45 0
-47 -46 -42 0
-47 46 42 0
47 -46 42 0
47 46 -42 0
-48 7 0
-48 44 0
48 -7 -44 0
-49 -48 -47 0
-49 48 47 0
49 -48 47 0
49 48 -47 0
50 49 29 0
50 -49 -29 0
-51 -19 -18 0
-51 19 18 0
51 -19 18 0
51 19 -18 0
-52 -45 -43 0
-52 45 43 0
52 -45 43 0
52 45 -43 0
53 52 51 0
53 -52 -51 0
54 -50 -53 0
-55 3 0
-55 10 0
55 -3 -10 0
-56 9 0
-56 44 0
56 -9 -44 0
57 56 55 0
57 -56 -55 0
58 -54 -57 0
59 -8 -9 0
-60 -7 0
-60 -59 0
61 -2 -3 0
-62 -1 0
-62 -61 0
63 -5 -6 0
-64 -4 0
-64 -63 0
-65 62 0
-65 64 0
-66 60 0
-66 65 0
-67 -58 0
-67 66 0
67 0
