p cnf 447 1301
37 28 1 0
37 -28 -1 0
38 29 20 0
38 -29 -20 0
39 -37 -38 0
40 30 21 0
40 -30 -21 0
41 -39 -40 0
42 31 22 0
42 -31 -22 0
43 -41 -42 0
44 32 23 0
44 -32 -23 0
45 -43 -44 0
46 33 24 0
46 -33 -24 0
47 -45 -46 0
48 34 25 0
48 -34 -25 0
49 -47 -48 0
50 35 26 0
50 -35 -26 0
51 -49 -50 0
52 36 27 0
52 -36 -27 0
53 -51 -52 0
-54 2 0
-54 3 0
54 -2 -3 0
-55 4 0
-55 5 0
55 -4 -5 0
-56 -55 -54 0
-56 55 54 0
56 -55 54 0
56 55 -54 0
-57 3 0
-57 4 0
57 -3 -4 0
-58 5 0
-58 6 0
58 -5 -6 0
-59 57 0
-59 58 0
59 -57 -58 0
-60 -58 -57 0
-60 58 57 0
60 -58 57 0
60 58 -57 0
-61 3 0
-61 6 0
61 -3 -6 0
-62 5 0
-62 7 0
62 -5 -7 0
-63 61 0
-63 62 0
63 -61 -62 0
-64 -62 -61 0
-64 62 61 0
64 -62 61 0
64 62 -61 0
-65 3 0
-65 7 0
65 -3 -7 0
-66 5 0
-66 8 0
66 -5 -8 0
-67 65 0
-67 66 0
67 -65 -66 0
-68 -66 -65 0
-68 66 65 0
68 -66 65 0
68 66 -65 0
-69 3 0
-69 8 0
69 -3 -8 0
-70 5 0
-70 9 0
70 -5 -9 0
-71 69 0
-71 70 0
71 -69 -70 0
-72 -70 -69 0
-72 70 69 0
72 -70 69 0
72 70 -69 0
-73 3 0
-73 9 0
73 -3 -9 0
-74 5 0
-74 10 0
74 -5 -10 0
-75 73 0
-75 74 0
75 -73 -74 0
-76 -74 -73 0
-76 74 73 0
76 -74 73 0
76 74 -73 0
-77 3 0
-77 10 0
77 -3 -10 0
-78 5 0
-78 11 0
78 -5 -11 0
-79 77 0
-79 78 0
79 -77 -78 0
-80 -78 -77 0
-80 78 77 0
80 -78 77 0
80 78 -77 0
-81 3 0
-81 11 0
81 -3 -11 0
-82 5 0
-82 12 0
82 -5 -12 0
-83 81 0
-83 82 0
83 -81 -82 0
-84 80 0
-84 83 0
84 -80 -83 0
-85 -79 0
-85 -84 0
85 79 84 0
-86 76 0
-86 -85 0
86 -76 85 0
-87 -75 0
-87 -86 0
87 75 86 0
-88 72 0
-88 -87 0
88 -72 87 0
-89 -71 0
-89 -88 0
89 71 88 0
-90 68 0
-90 -89 0
90 -68 89 0
-91 -67 0
-91 -90 0
91 67 90 0
-92 64 0
-92 -91 0
92 -64 91 0
-93 -63 0
-93 -92 0
93 63 92 0
-94 60 0
-94 -93 0
94 -60 93 0
-95 -59 0
-95 -94 0
95 59 94 0
-96 95 -56 0
-96 -95 56 0
96 95 56 0
96 -95 -56 0
-97 6 0
-97 13 0
97 -6 -13 0
-98 -97 -96 0
-98 97 96 0
98 -97 96 0
98 97 -96 0
-99 93 -60 0
-99 -93 60 0
99 93 60 0
99 -93 -60 0
-100 7 0
-100 13 0
100 -7 -13 0
-101 99 0
-101 100 0
101 -99 -100 0
-102 -100 -99 0
-102 100 99 0
102 -100 99 0
102 100 -99 0
-103 91 -64 0
-103 -91 64 0
103 91 64 0
103 -91 -64 0
-104 8 0
-104 13 0
104 -8 -13 0
-105 103 0
-105 104 0
105 -103 -104 0
-106 -104 -103 0
-106 104 103 0
106 -104 103 0
106 104 -103 0
-107 89 -68 0
-107 -89 68 0
107 89 68 0
107 -89 -68 0
-108 9 0
-108 13 0
108 -9 -13 0
-109 107 0
-109 108 0
109 -107 -108 0
-110 -108 -107 0
-110 108 107 0
110 -108 107 0
110 108 -107 0
-111 87 -72 0
-111 -87 72 0
111 87 72 0
111 -87 -72 0
-112 10 0
-112 13 0
112 -10 -13 0
-113 111 0
-113 112 0
113 -111 -112 0
-114 -112 -111 0
-114 112 111 0
114 -112 111 0
114 112 -111 0
-115 85 -76 0
-115 -85 76 0
115 85 76 0
115 -85 -76 0
-116 11 0
-116 13 0
116 -11 -13 0
-117 115 0
-117 116 0
117 -115 -116 0
-118 -116 -115 0
-118 116 115 0
118 -116 115 0
118 116 -115 0
-119 -83 -80 0
-119 83 80 0
119 -83 80 0
119 83 -80 0
-120 12 0
-120 13 0
120 -12 -13 0
-121 119 0
-121 120 0
121 -119 -120 0
-122 118 0
-122 121 0
122 -118 -121 0
-123 -117 0
-123 -122 0
123 117 122 0
-124 114 0
-124 -123 0
124 -114 123 0
-125 -113 0
-125 -124 0
125 113 124 0
-126 110 0
-126 -125 0
126 -110 125 0
-127 -109 0
-127 -126 0
127 109 126 0
-128 106 0
-128 -127 0
128 -106 127 0
-129 -105 0
-129 -128 0
129 105 128 0
-130 102 0
-130 -129 0
130 -102 129 0
-131 -101 0
-131 -130 0
131 101 130 0
-132 131 -98 0
-132 -131 98 0
132 131 98 0
132 -131 -98 0
-133 7 0
-133 14 0
133 -7 -14 0
-134 -133 -132 0
-134 133 132 0
134 -133 132 0
134 133 -132 0
-135 129 -102 0
-135 -129 102 0
135 129 102 0
135 -129 -102 0
-136 8 0
-136 14 0
136 -8 -14 0
-137 135 0
-137 136 0
137 -135 -136 0
-138 -136 -135 0
-138 136 135 0
138 -136 135 0
138 136 -135 0
-139 127 -106 0
-139 -127 106 0
139 127 106 0
139 -127 -106 0
-140 9 0
-140 14 0
140 -9 -14 0
-141 139 0
-141 140 0
141 -139 -140 0
-142 -140 -139 0
-142 140 139 0
142 -140 139 0
142 140 -139 0
-143 125 -110 0
-143 -125 110 0
143 125 110 0
143 -125 -110 0
-144 10 0
-144 14 0
144 -10 -14 0
-145 143 0
-145 144 0
145 -143 -144 0
-146 -144 -143 0
-146 144 143 0
146 -144 143 0
146 144 -143 0
-147 123 -114 0
-147 -123 114 0
147 123 114 0
147 -123 -114 0
-148 11 0
-148 14 0
148 -11 -14 0
-149 147 0
-149 148 0
149 -147 -148 0
-150 -148 -147 0
-150 148 147 0
150 -148 147 0
150 148 -147 0
-151 -121 -118 0
-151 121 118 0
151 -121 118 0
151 121 -118 0
-152 12 0
-152 14 0
152 -12 -14 0
-153 151 0
-153 152 0
153 -151 -152 0
-154 150 0
-154 153 0
154 -150 -153 0
-155 -149 0
-155 -154 0
155 149 154 0
-156 146 0
-156 -155 0
156 -146 155 0
-157 -145 0
-157 -156 0
157 145 156 0
-158 142 0
-158 -157 0
158 -142 157 0
-159 -141 0
-159 -158 0
159 141 158 0
-160 138 0
-160 -159 0
160 -138 159 0
-161 -137 0
-161 -160 0
161 137 160 0
-162 161 -134 0
-162 -161 134 0
162 161 134 0
162 -161 -134 0
-163 8 0
-163 15 0
163 -8 -15 0
-164 -163 -162 0
-164 163 162 0
164 -163 162 0
164 163 -162 0
-165 159 -138 0
-165 -159 138 0
165 159 138 0
165 -159 -138 0
-166 9 0
-166 15 0
166 -9 -15 0
-167 165 0
-167 166 0
167 -165 -166 0
-168 -166 -165 0
-168 166 165 0
168 -166 165 0
168 166 -165 0
-169 157 -142 0
-169 -157 142 0
169 157 142 0
169 -157 -142 0
-170 10 0
-170 15 0
170 -10 -15 0
-171 169 0
-171 170 0
171 -169 -170 0
-172 -170 -169 0
-172 170 169 0
172 -170 169 0
172 170 -169 0
-173 155 -146 0
-173 -155 146 0
173 155 146 0
173 -155 -146 0
-174 11 0
-174 15 0
174 -11 -15 0
-175 173 0
-175 174 0
175 -173 -174 0
-176 -174 -173 0
-176 174 173 0
176 -174 173 0
176 174 -173 0
-177 -153 -150 0
-177 153 150 0
177 -153 150 0
177 153 -150 0
-178 12 0
-178 15 0
178 -12 -15 0
-179 177 0
-179 178 0
179 -177 -178 0
-180 176 0
-180 179 0
180 -176 -179 0
-181 -175 0
-181 -180 0
181 175 180 0
-182 172 0
-182 -181 0
182 -172 181 0
-183 -171 0
-183 -182 0
183 171 182 0
-184 168 0
-184 -183 0
184 -168 183 0
-185 -167 0
-185 -184 0
185 167 184 0
-186 185 -164 0
-186 -185 164 0
186 185 164 0
186 -185 -164 0
-187 9 0
-187 16 0
187 -9 -16 0
-188 -187 -186 0
-188 187 186 0
188 -187 186 0
188 187 -186 0
-189 183 -168 0
-189 -183 168 0
189 183 168 0
189 -183 -168 0
-190 10 0
-190 16 0
190 -10 -16 0
-191 189 0
-191 190 0
191 -189 -190 0
-192 -190 -189 0
-192 190 189 0
192 -190 189 0
192 190 -189 0
-193 181 -172 0
-193 -181 172 0
193 181 172 0
193 -181 -172 0
-194 11 0
-194 16 0
194 -11 -16 0
-195 193 0
-195 194 0
195 -193 -194 0
-196 -194 -193 0
-196 194 193 0
196 -194 193 0
196 194 -193 0
-197 -179 -176 0
-197 179 176 0
197 -179 176 0
197 179 -176 0
-198 12 0
-198 16 0
198 -12 -16 0
-199 197 0
-199 198 0
199 -197 -198 0
-200 196 0
-200 199 0
200 -196 -199 0
-201 -195 0
-201 -200 0
201 195 200 0
-202 192 0
-202 -201 0
202 -192 201 0
-203 -191 0
-203 -202 0
203 191 202 0
-204 203 -188 0
-204 -203 188 0
204 203 188 0
204 -203 -188 0
-205 10 0
-205 17 0
205 -10 -17 0
-206 -205 -204 0
-206 205 204 0
206 -205 204 0
206 205 -204 0
-207 201 -192 0
-207 -201 192 0
207 201 192 0
207 -201 -192 0
-208 11 0
-208 17 0
208 -11 -17 0
-209 207 0
-209 208 0
209 -207 -208 0
-210 -208 -207 0
-210 208 207 0
210 -208 207 0
210 208 -207 0
-211 -199 -196 0
-211 199 196 0
211 -199 196 0
211 199 -196 0
-212 12 0
-212 17 0
212 -12 -17 0
-213 211 0
-213 212 0
213 -211 -212 0
-214 210 0
-214 213 0
214 -210 -213 0
-215 -209 0
-215 -214 0
215 209 214 0
-216 215 -206 0
-216 -215 206 0
216 215 206 0
216 -215 -206 0
-217 11 0
-217 18 0
217 -11 -18 0
-218 -217 -216 0
-218 217 216 0
218 -217 216 0
218 217 -216 0
-219 -213 -210 0
-219 213 210 0
219 -213 210 0
219 213 -210 0
-220 12 0
-220 18 0
220 -12 -18 0
-221 219 0
-221 220 0
221 -219 -220 0
-222 -221 -218 0
-222 221 218 0
222 -221 218 0
222 221 -218 0
-223 12 0
-223 19 0
223 -12 -19 0
-224 -223 -222 0
-224 223 222 0
224 -223 222 0
224 223 -222 0
-225 224 -1 0
-225 -224 1 0
-226 -220 -219 0
-226 220 219 0
226 -220 219 0
226 220 -219 0
-227 226 -20 0
-227 -226 20 0
-228 225 0
-228 227 0
-229 -212 -211 0
-229 212 211 0
229 -212 211 0
229 212 -211 0
-230 229 -21 0
-230 -229 21 0
-231 228 0
-231 230 0
-232 -198 -197 0
-232 198 197 0
232 -198 197 0
232 198 -197 0
-233 232 -22 0
-233 -232 22 0
-234 231 0
-234 233 0
-235 -178 -177 0
-235 178 177 0
235 -178 177 0
235 178 -177 0
-236 235 -23 0
-236 -235 23 0
-237 234 0
-237 236 0
-238 -152 -151 0
-238 152 151 0
238 -152 151 0
238 152 -151 0
-239 238 -24 0
-239 -238 24 0
-240 237 0
-240 239 0
-241 -120 -119 0
-241 120 119 0
241 -120 119 0
241 120 -119 0
-242 241 -25 0
-242 -241 25 0
-243 240 0
-243 242 0
-244 -82 -81 0
-244 82 81 0
244 -82 81 0
244 82 -81 0
-245 244 -26 0
-245 -244 26 0
-246 243 0
-246 245 0
-247 3 0
-247 12 0
247 -3 -12 0
-248 247 -27 0
-248 -247 27 0
-249 246 0
-249 248 0
-250 12 0
-250 19 0
250 -12 -19 0
-251 11 0
-251 18 0
251 -11 -18 0
-252 -251 -250 0
-252 251 250 0
252 -251 250 0
252 251 -250 0
-253 12 0
-253 18 0
253 -12 -18 0
-254 11 0
-254 17 0
254 -11 -17 0
-255 253 0
-255 254 0
255 -253 -254 0
-256 -254 -253 0
-256 254 253 0
256 -254 253 0
256 254 -253 0
-257 12 0
-257 17 0
257 -12 -17 0
-258 11 0
-258 16 0
258 -11 -16 0
-259 257 0
-259 258 0
259 -257 -258 0
-260 -258 -257 0
-260 258 257 0
260 -258 257 0
260 258 -257 0
-261 12 0
-261 16 0
261 -12 -16 0
-262 11 0
-262 15 0
262 -11 -15 0
-263 261 0
-263 262 0
263 -261 -262 0
-264 -262 -261 0
-264 262 261 0
264 -262 261 0
264 262 -261 0
-265 12 0
-265 15 0
265 -12 -15 0
-266 11 0
-266 14 0
266 -11 -14 0
-267 265 0
-267 266 0
267 -265 -266 0
-268 -266 -265 0
-268 266 265 0
268 -266 265 0
268 266 -265 0
-269 12 0
-269 14 0
269 -12 -14 0
-270 11 0
-270 13 0
270 -11 -13 0
-271 269 0
-271 270 0
271 -269 -270 0
-272 -270 -269 0
-272 270 269 0
272 -270 269 0
272 270 -269 0
-273 12 0
-273 13 0
273 -12 -13 0
-274 5 0
-274 11 0
274 -5 -11 0
-275 273 0
-275 274 0
275 -273 -274 0
-276 -274 -273 0
-276 274 273 0
276 -274 273 0
276 274 -273 0
-277 5 0
-277 12 0
277 -5 -12 0
-278 3 0
-278 11 0
278 -3 -11 0
-279 277 0
-279 278 0
279 -277 -278 0
-280 276 0
-280 279 0
280 -276 -279 0
-281 -275 0
-281 -280 0
281 275 280 0
-282 272 0
-282 -281 0
282 -272 281 0
-283 -271 0
-283 -282 0
283 271 282 0
-284 268 0
-284 -283 0
284 -268 283 0
-285 -267 0
-285 -284 0
285 267 284 0
-286 264 0
-286 -285 0
286 -264 285 0
-287 -263 0
-287 -286 0
287 263 286 0
-288 260 0
-288 -287 0
288 -260 287 0
-289 -259 0
-289 -288 0
289 259 288 0
-290 256 0
-290 -289 0
290 -256 289 0
-291 -255 0
-291 -290 0
291 255 290 0
-292 291 -252 0
-292 -291 252 0
292 291 252 0
292 -291 -252 0
-293 10 0
-293 17 0
293 -10 -17 0
-294 -293 -292 0
-294 293 292 0
294 -293 292 0
294 293 -292 0
-295 289 -256 0
-295 -289 256 0
295 289 256 0
295 -289 -256 0
-296 10 0
-296 16 0
296 -10 -16 0
-297 295 0
-297 296 0
297 -295 -296 0
-298 -296 -295 0
-298 296 295 0
298 -296 295 0
298 296 -295 0
-299 287 -260 0
-299 -287 260 0
299 287 260 0
299 -287 -260 0
-300 10 0
-300 15 0
300 -10 -15 0
-301 299 0
-301 300 0
301 -299 -300 0
-302 -300 -299 0
-302 300 299 0
302 -300 299 0
302 300 -299 0
-303 285 -264 0
-303 -285 264 0
303 285 264 0
303 -285 -264 0
-304 10 0
-304 14 0
304 -10 -14 0
-305 303 0
-305 304 0
305 -303 -304 0
-306 -304 -303 0
-306 304 303 0
306 -304 303 0
306 304 -303 0
-307 283 -268 0
-307 -283 268 0
307 283 268 0
307 -283 -268 0
-308 10 0
-308 13 0
308 -10 -13 0
-309 307 0
-309 308 0
309 -307 -308 0
-310 -308 -307 0
-310 308 307 0
310 -308 307 0
310 308 -307 0
-311 281 -272 0
-311 -281 272 0
311 281 272 0
311 -281 -272 0
-312 5 0
-312 10 0
312 -5 -10 0
-313 311 0
-313 312 0
313 -311 -312 0
-314 -312 -311 0
-314 312 311 0
314 -312 311 0
314 312 -311 0
-315 -279 -276 0
-315 279 276 0
315 -279 276 0
315 279 -276 0
-316 3 0
-316 10 0
316 -3 -10 0
-317 315 0
-317 316 0
317 -315 -316 0
-318 314 0
-318 317 0
318 -314 -317 0
-319 -313 0
-319 -318 0
319 313 318 0
-320 310 0
-320 -319 0
320 -310 319 0
-321 -309 0
-321 -320 0
321 309 320 0
-322 306 0
-322 -321 0
322 -306 321 0
-323 -305 0
-323 -322 0
323 305 322 0
-324 302 0
-324 -323 0
324 -302 323 0
-325 -301 0
-325 -324 0
325 301 324 0
-326 298 0
-326 -325 0
326 -298 325 0
-327 -297 0
-327 -326 0
327 297 326 0
-328 327 -294 0
-328 -327 294 0
328 327 294 0
328 -327 -294 0
-329 9 0
-329 16 0
329 -9 -16 0
-330 -329 -328 0
-330 329 328 0
330 -329 328 0
330 329 -328 0
-331 325 -298 0
-331 -325 298 0
331 325 298 0
331 -325 -298 0
-332 9 0
-332 15 0
332 -9 -15 0
-333 331 0
-333 332 0
333 -331 -332 0
-334 -332 -331 0
-334 332 331 0
334 -332 331 0
334 332 -331 0
-335 323 -302 0
-335 -323 302 0
335 323 302 0
335 -323 -302 0
-336 9 0
-336 14 0
336 -9 -14 0
-337 335 0
-337 336 0
337 -335 -336 0
-338 -336 -335 0
-338 336 335 0
338 -336 335 0
338 336 -335 0
-339 321 -306 0
-339 -321 306 0
339 321 306 0
339 -321 -306 0
-340 9 0
-340 13 0
340 -9 -13 0
-341 339 0
-341 340 0
341 -339 -340 0
-342 -340 -339 0
-342 340 339 0
342 -340 339 0
342 340 -339 0
-343 319 -310 0
-343 -319 310 0
343 319 310 0
343 -319 -310 0
-344 5 0
-344 9 0
344 -5 -9 0
-345 343 0
-345 344 0
345 -343 -344 0
-346 -344 -343 0
-346 344 343 0
346 -344 343 0
346 344 -343 0
-347 -317 -314 0
-347 317 314 0
347 -317 314 0
347 317 -314 0
-348 3 0
-348 9 0
348 -3 -9 0
-349 347 0
-349 348 0
349 -347 -348 0
-350 346 0
-350 349 0
350 -346 -349 0
-351 -345 0
-351 -350 0
351 345 350 0
-352 342 0
-352 -351 0
352 -342 351 0
-353 -341 0
-353 -352 0
353 341 352 0
-354 338 0
-354 -353 0
354 -338 353 0
-355 -337 0
-355 -354 0
355 337 354 0
-356 334 0
-356 -355 0
356 -334 355 0
-357 -333 0
-357 -356 0
357 333 356 0
-358 357 -330 0
-358 -357 330 0
358 357 330 0
358 -357 -330 0
-359 8 0
-359 15 0
359 -8 -15 0
-360 -359 -358 0
-360 359 358 0
360 -359 358 0
360 359 -358 0
-361 355 -334 0
-361 -355 334 0
361 355 334 0
361 -355 -334 0
-362 8 0
-362 14 0
362 -8 -14 0
-363 361 0
-363 362 0
363 -361 -362 0
-364 -362 -361 0
-364 362 361 0
364 -362 361 0
364 362 -361 0
-365 353 -338 0
-365 -353 338 0
365 353 338 0
365 -353 -338 0
-366 8 0
-366 13 0
366 -8 -13 0
-367 365 0
-367 366 0
367 -365 -366 0
-368 -366 -365 0
-368 366 365 0
368 -366 365 0
368 366 -365 0
-369 351 -342 0
-369 -351 342 0
369 351 342 0
369 -351 -342 0
-370 5 0
-370 8 0
370 -5 -8 0
-371 369 0
-371 370 0
371 -369 -370 0
-372 -370 -369 0
-372 370 369 0
372 -370 369 0
372 370 -369 0
-373 -349 -346 0
-373 349 346 0
373 -349 346 0
373 349 -346 0
-374 3 0
-374 8 0
374 -3 -8 0
-375 373 0
-375 374 0
375 -373 -374 0
-376 372 0
-376 375 0
376 -372 -375 0
-377 -371 0
-377 -376 0
377 371 376 0
-378 368 0
-378 -377 0
378 -368 377 0
-379 -367 0
-379 -378 0
379 367 378 0
-380 364 0
-380 -379 0
380 -364 379 0
-381 -363 0
-381 -380 0
381 363 380 0
-382 381 -360 0
-382 -381 360 0
382 381 360 0
382 -381 -360 0
-383 7 0
-383 14 0
383 -7 -14 0
-384 -383 -382 0
-384 383 382 0
384 -383 382 0
384 383 -382 0
-385 379 -364 0
-385 -379 364 0
385 379 364 0
385 -379 -364 0
-386 7 0
-386 13 0
386 -7 -13 0
-387 385 0
-387 386 0
387 -385 -386 0
-388 -386 -385 0
-388 386 385 0
388 -386 385 0
388 386 -385 0
-389 377 -368 0
-389 -377 368 0
389 377 368 0
389 -377 -368 0
-390 5 0
-390 7 0
390 -5 -7 0
-391 389 0
-391 390 0
391 -389 -390 0
-392 -390 -389 0
-392 390 389 0
392 -390 389 0
392 390 -389 0
-393 -375 -372 0
-393 375 372 0
393 -375 372 0
393 375 -372 0
-394 3 0
-394 7 0
394 -3 -7 0
-395 393 0
-395 394 0
395 -393 -394 0
-396 392 0
-396 395 0
396 -392 -395 0
-397 -391 0
-397 -396 0
397 391 396 0
-398 388 0
-398 -397 0
398 -388 397 0
-399 -387 0
-399 -398 0
399 387 398 0
-400 399 -384 0
-400 -399 384 0
400 399 384 0
400 -399 -384 0
-401 6 0
-401 13 0
401 -6 -13 0
-402 -401 -400 0
-402 401 400 0
402 -401 400 0
402 401 -400 0
-403 397 -388 0
-403 -397 388 0
403 397 388 0
403 -397 -388 0
-404 5 0
-404 6 0
404 -5 -6 0
-405 403 0
-405 404 0
405 -403 -404 0
-406 -404 -403 0
-406 404 403 0
406 -404 403 0
406 404 -403 0
-407 -395 -392 0
-407 395 392 0
407 -395 392 0
407 395 -392 0
-408 3 0
-408 6 0
408 -3 -6 0
-409 407 0
-409 408 0
409 -407 -408 0
-410 406 0
-410 409 0
410 -406 -409 0
-411 -405 0
-411 -410 0
411 405 410 0
-412 411 -402 0
-412 -411 402 0
412 411 402 0
412 -411 -402 0
-413 4 0
-413 5 0
413 -4 -5 0
-414 -413 -412 0
-414 413 412 0
414 -413 412 0
414 413 -412 0
-415 -409 -406 0
-415 409 406 0
415 -409 406 0
415 409 -406 0
-416 3 0
-416 4 0
416 -3 -4 0
-417 415 0
-417 416 0
417 -415 -416 0
-418 -417 -414 0
-418 417 414 0
418 -417 414 0
418 417 -414 0
-419 2 0
-419 3 0
419 -2 -3 0
-420 -419 -418 0
-420 419 418 0
420 -419 418 0
420 419 -418 0
-421 420 -28 0
-421 -420 28 0
-422 -416 -415 0
-422 416 415 0
422 -416 415 0
422 416 -415 0
-423 422 -29 0
-423 -422 29 0
-424 421 0
-424 423 0
-425 -408 -407 0
-425 408 407 0
425 -408 407 0
425 408 -407 0
-426 425 -30 0
-426 -425 30 0
-427 424 0
-427 426 0
-428 -394 -393 0
-428 394 393 0
428 -394 393 0
428 394 -393 0
-429 428 -31 0
-429 -428 31 0
-430 427 0
-430 429 0
-431 -374 -373 0
-431 374 373 0
431 -374 373 0
431 374 -373 0
-432 431 -32 0
-432 -431 32 0
-433 430 0
-433 432 0
-434 -348 -347 0
-434 348 347 0
434 -348 347 0
434 348 -347 0
-435 434 -33 0
-435 -434 33 0
-436 433 0
-436 435 0
-437 -316 -315 0
-437 316 315 0
437 -316 315 0
437 316 -315 0
-438 437 -34 0
-438 -437 34 0
-439 436 0
-439 438 0
-440 -278 -277 0
-440 278 277 0
440 -278 277 0
440 278 -277 0
-441 440 -35 0
-441 -440 35 0
-442 439 0
-442 441 0
-443 3 0
-443 12 0
443 -3 -12 0
-444 443 -36 0
-444 -443 36 0
-445 442 0
-445 444 0
-446 249 0
-446 445 0
-447 -53 0
-447 446 0
447 0
