p cnf 135 345
21 16 1 0
21 -16 -1 0
22 17 12 0
22 -17 -12 0
23 -21 -22 0
24 18 13 0
24 -18 -13 0
25 -23 -24 0
26 19 14 0
26 -19 -14 0
27 -25 -26 0
28 20 15 0
28 -20 -15 0
29 -27 -28 0
-30 2 0
-30 3 0
30 -2 -3 0
-31 4 0
-31 5 0
31 -4 -5 0
-32 -31 -30 0
-32 31 30 0
32 -31 30 0
32 31 -30 0
-33 3 0
-33 4 0
33 -3 -4 0
-34 5 0
-34 6 0
34 -5 -6 0
-35 33 0
-35 34 0
35 -33 -34 0
-36 -34 -33 0
-36 34 33 0
36 -34 33 0
36 34 -33 0
-37 3 0
-37 6 0
37 -3 -6 0
-38 5 0
-38 7 0
38 -5 -7 0
-39 37 0
-39 38 0
39 -37 -38 0
-40 -38 -37 0
-40 38 37 0
40 -38 37 0
40 38 -37 0
-41 3 0
-41 7 0
41 -3 -7 0
-42 5 0
-42 8 0
42 -5 -8 0
-43 41 0
-43 42 0
43 -41 -42 0
-44 40 0
-44 43 0
44 -40 -43 0
-45 -39 0
-45 -44 0
45 39 44 0
-46 36 0
-46 -45 0
46 -36 45 0
-47 -35 0
-47 -46 0
47 35 46 0
-48 47 -32 0
-48 -47 32 0
48 47 32 0
48 -47 -32 0
-49 6 0
-49 9 0
49 -6 -9 0
-50 -49 -48 0
-50 49 48 0
50 -49 48 0
50 49 -48 0
-51 45 -36 0
-51 -45 36 0
51 45 36 0
51 -45 -36 0
-52 7 0
-52 9 0
52 -7 -9 0
-53 51 0
-53 52 0
53 -51 -52 0
-54 -52 -51 0
-54 52 51 0
54 -52 51 0
54 52 -51 0
-55 -43 -40 0
-55 43 40 0
55 -43 40 0
55 43 -40 0
-56 8 0
-56 9 0
56 -8 -9 0
-57 55 0
-57 56 0
57 -55 -56 0
-58 54 0
-58 57 0
58 -54 -57 0
-59 -53 0
-59 -58 0
59 53 58 0
-60 59 -50 0
-60 -59 50 0
60 59 50 0
60 -59 -50 0
-61 7 0
-61 10 0
61 -7 -10 0
-62 -61 -60 0
-62 61 60 0
62 -61 60 0
62 61 -60 0
-63 -57 -54 0
-63 57 54 0
63 -57 54 0
63 57 -54 0
-64 8 0
-64 10 0
64 -8 -10 0
-65 63 0
-65 64 0
65 -63 -64 0
-66 -65 -62 0
-66 65 62 0
66 -65 62 0
66 65 -62 0
-67 8 0
-67 11 0
67 -8 -11 0
-68 -67 -66 0
-68 67 66 0
68 -67 66 0
68 67 -66 0
-69 68 -1 0
-69 -68 1 0
-70 -64 -63 0
-70 64 63 0
70 -64 63 0
70 64 -63 0
-71 70 -12 0
-71 -70 12 0
-72 69 0
-72 71 0
-73 -56 -55 0
-73 56 55 0
73 -56 55 0
73 56 -55 0
-74 73 -13 0
-74 -73 13 0
-75 72 0
-75 74 0
-76 -42 -41 0
-76 42 41 0
76 -42 41 0
76 42 -41 0
-77 76 -14 0
-77 -76 14 0
-78 75 0
-78 77 0
-79 3 0
-79 8 0
79 -3 -8 0
-80 79 -15 0
-80 -79 15 0
-81 78 0
-81 80 0
-82 8 0
-82 11 0
82 -8 -11 0
-83 7 0
-83 10 0
83 -7 -10 0
-84 -83 -82 0
-84 83 82 0
84 -83 82 0
84 83 -82 0
-85 8 0
-85 10 0
85 -8 -10 0
-86 7 0
-86 9 0
86 -7 -9 0
-87 85 0
-87 86 0
87 -85 -86 0
-88 -86 -85 0
-88 86 85 0
88 -86 85 0
88 86 -85 0
-89 8 0
-89 9 0
89 -8 -9 0
-90 5 0
-90 7 0
90 -5 -7 0
-91 89 0
-91 90 0
91 -89 -90 0
-92 -90 -89 0
-92 90 89 0
92 -90 89 0
92 90 -89 0
-93 5 0
-93 8 0
93 -5 -8 0
-94 3 0
-94 7 0
94 -3 -7 0
-95 93 0
-95 94 0
95 -93 -94 0
-96 92 0
-96 95 0
96 -92 -95 0
-97 -91 0
-97 -96 0
97 91 96 0
-98 88 0
-98 -97 0
98 -88 97 0
-99 -87 0
-99 -98 0
99 87 98 0
-100 99 -84 0
-100 -99 84 0
100 99 84 0
100 -99 -84 0
-101 6 0
-101 9 0
101 -6 -9 0
-102 -101 -100 0
-102 101 100 0
102 -101 100 0
102 101 -100 0
-103 97 -88 0
-103 -97 88 0
103 97 88 0
103 -97 -88 0
-104 5 0
-104 6 0
104 -5 -6 0
-105 103 0
-105 104 0
105 -103 -104 0
-106 -104 -103 0
-106 104 103 0
106 -104 103 0
106 104 -103 0
-107 -95 -92 0
-107 95 92 0
107 -95 92 0
107 95 -92 0
-108 3 0
-108 6 0
108 -3 -6 0
-109 107 0
-109 108 0
109 -107 -108 0
-110 106 0
-110 109 0
110 -106 -109 0
-111 -105 0
-111 -110 0
111 105 110 0
-112 111 -102 0
-112 -111 102 0
112 111 102 0
112 -111 -102 0
-113 4 0
-113 5 0
113 -4 -5 0
-114 -113 -112 0
-114 113 112 0
114 -113 112 0
114 113 -112 0
-115 -109 -106 0
-115 109 106 0
115 -109 106 0
115 109 -106 0
-116 3 0
-116 4 0
116 -3 -4 0
-117 115 0
-117 116 0
117 -115 -116 0
-118 -117 -114 0
-118 117 114 0
118 -117 114 0
118 117 -114 0
-119 2 0
-119 3 0
119 -2 -3 0
-120 -119 -118 0
-120 119 118 0
120 -119 118 0
120 119 -118 0
-121 120 -16 0
-121 -120 16 0
-122 -116 -115 0
-122 116 115 0
122 -116 115 0
122 116 -115 0
-123 122 -17 0
-123 -122 17 0
-124 121 0
-124 123 0
-125 -108 -107 0
-125 108 107 0
125 -108 107 0
125 108 -107 0
-126 125 -18 0
-126 -125 18 0
-127 124 0
-127 126 0
-128 -94 -93 0
-128 94 93 0
128 -94 93 0
128 94 -93 0
-129 128 -19 0
-129 -128 19 0
-130 127 0
-130 129 0
-131 3 0
-131 8 0
131 -3 -8 0
-132 131 -20 0
-132 -131 20 0
-133 130 0
-133 132 0
-134 81 0
-134 133 0
-135 -29 0
-135 134 0
135 0
