p cnf 124 354
-13 10 0
-13 11 0
13 -10 -11 0
-14 1 0
-14 13 0
14 -1 -13 0
-15 6 0
-15 11 0
15 -6 -11 0
-16 9 0
-16 10 0
16 -9 -10 0
-17 15 0
-17 16 0
17 -15 -16 0
-18 -16 -15 0
-18 16 15 0
18 -16 15 0
18 16 -15 0
-19 2 0
-19 18 0
19 -2 -18 0
-20 -19 -14 0
-20 19 14 0
20 -19 14 0
20 19 -14 0
-21 2 0
-21 13 0
21 -2 -13 0
-22 3 0
-22 18 0
22 -3 -18 0
-23 21 0
-23 22 0
23 -21 -22 0
-24 -22 -21 0
-24 22 21 0
24 -22 21 0
24 22 -21 0
-25 3 0
-25 13 0
25 -3 -13 0
-26 12 0
-26 18 0
26 -12 -18 0
-27 25 0
-27 26 0
27 -25 -26 0
-28 24 0
-28 27 0
28 -24 -27 0
-29 -23 0
-29 -28 0
29 23 28 0
-30 29 -20 0
-30 -29 20 0
30 29 20 0
30 -29 -20 0
-31 5 0
-31 11 0
31 -5 -11 0
-32 6 0
-32 9 0
32 -6 -9 0
-33 31 0
-33 32 0
33 -31 -32 0
-34 -32 -31 0
-34 32 31 0
34 -32 31 0
34 32 -31 0
-35 17 0
-35 34 0
35 -17 -34 0
-36 -34 -17 0
-36 34 17 0
36 -34 17 0
36 34 -17 0
-37 8 0
-37 10 0
37 -8 -10 0
-38 36 0
-38 37 0
38 -36 -37 0
-39 -37 -36 0
-39 37 36 0
39 -37 36 0
39 37 -36 0
-40 3 0
-40 39 0
40 -3 -39 0
-41 -40 -30 0
-41 40 30 0
41 -40 30 0
41 40 -30 0
-42 -27 -24 0
-42 27 24 0
42 -27 24 0
42 27 -24 0
-43 12 0
-43 39 0
43 -12 -39 0
-44 42 0
-44 43 0
44 -42 -43 0
-45 -44 -41 0
-45 44 41 0
45 -44 41 0
45 44 -41 0
-46 4 0
-46 11 0
46 -4 -11 0
-47 5 0
-47 9 0
47 -5 -9 0
-48 -47 -46 0
-48 47 46 0
48 -47 46 0
48 47 -46 0
-49 -33 0
-49 -35 0
49 33 35 0
-50 49 -48 0
-50 -49 48 0
50 49 48 0
50 -49 -48 0
-51 6 0
-51 8 0
51 -6 -8 0
-52 -51 -50 0
-52 51 50 0
52 -51 50 0
52 51 -50 0
-53 -52 -38 0
-53 52 38 0
53 -52 38 0
53 52 -38 0
-54 7 0
-54 10 0
54 -7 -10 0
-55 -54 -53 0
-55 54 53 0
55 -54 53 0
55 54 -53 0
-56 12 0
-56 55 0
56 -12 -55 0
-57 -56 -45 0
-57 56 45 0
57 -56 45 0
57 56 -45 0
-58 1 0
-58 10 0
58 -1 -10 0
-59 2 0
-59 6 0
59 -2 -6 0
-60 -59 -58 0
-60 59 58 0
60 -59 58 0
60 59 -58 0
-61 2 0
-61 10 0
61 -2 -10 0
-62 3 0
-62 6 0
62 -3 -6 0
-63 61 0
-63 62 0
63 -61 -62 0
-64 -62 -61 0
-64 62 61 0
64 -62 61 0
64 62 -61 0
-65 3 0
-65 10 0
65 -3 -10 0
-66 6 0
-66 12 0
66 -6 -12 0
-67 65 0
-67 66 0
67 -65 -66 0
-68 64 0
-68 67 0
68 -64 -67 0
-69 -63 0
-69 -68 0
69 63 68 0
-70 69 -60 0
-70 -69 60 0
70 69 60 0
70 -69 -60 0
-71 3 0
-71 5 0
71 -3 -5 0
-72 -71 -70 0
-72 71 70 0
72 -71 70 0
72 71 -70 0
-73 -67 -64 0
-73 67 64 0
73 -67 64 0
73 67 -64 0
-74 5 0
-74 12 0
74 -5 -12 0
-75 73 0
-75 74 0
75 -73 -74 0
-76 -75 -72 0
-76 75 72 0
76 -75 72 0
76 75 -72 0
-77 4 0
-77 12 0
77 -4 -12 0
-78 -77 -76 0
-78 77 76 0
78 -77 76 0
78 77 -76 0
-79 11 0
-79 78 0
79 -11 -78 0
-80 -74 -73 0
-80 74 73 0
80 -74 73 0
80 74 -73 0
-81 9 0
-81 80 0
81 -9 -80 0
-82 -81 -79 0
-82 81 79 0
82 -81 79 0
82 81 -79 0
-83 11 0
-83 80 0
83 -11 -80 0
-84 -66 -65 0
-84 66 65 0
84 -66 65 0
84 66 -65 0
-85 9 0
-85 84 0
85 -9 -84 0
-86 83 0
-86 85 0
86 -83 -85 0
-87 -85 -83 0
-87 85 83 0
87 -85 83 0
87 85 -83 0
-88 11 0
-88 84 0
88 -11 -84 0
-89 10 0
-89 12 0
89 -10 -12 0
-90 9 0
-90 89 0
90 -9 -89 0
-91 88 0
-91 90 0
91 -88 -90 0
-92 87 0
-92 91 0
92 -87 -91 0
-93 -86 0
-93 -92 0
93 86 92 0
-94 93 -82 0
-94 -93 82 0
94 93 82 0
94 -93 -82 0
-95 8 0
-95 84 0
95 -8 -84 0
-96 -95 -94 0
-96 95 94 0
96 -95 94 0
96 95 -94 0
-97 -91 -87 0
-97 91 87 0
97 -91 87 0
97 91 -87 0
-98 8 0
-98 89 0
98 -8 -89 0
-99 97 0
-99 98 0
99 -97 -98 0
-100 -99 -96 0
-100 99 96 0
100 -99 96 0
100 99 -96 0
-101 7 0
-101 89 0
101 -7 -89 0
-102 -101 -100 0
-102 101 100 0
102 -101 100 0
102 101 -100 0
103 102 57 0
103 -102 -57 0
-104 -43 -42 0
-104 43 42 0
104 -43 42 0
104 43 -42 0
-105 -98 -97 0
-105 98 97 0
105 -98 97 0
105 98 -97 0
106 105 104 0
106 -105 -104 0
107 -103 -106 0
-108 -26 -25 0
-108 26 25 0
108 -26 25 0
108 26 -25 0
-109 -90 -88 0
-109 90 88 0
109 -90 88 0
109 90 -88 0
110 109 108 0
110 -109 -108 0
111 -107 -110 0
-112 12 0
-112 13 0
112 -12 -13 0
-113 11 0
-113 89 0
113 -11 -89 0
114 113 112 0
114 -113 -112 0
115 -111 -114 0
-116 -8 0
-116 -9 0
-117 -7 0
-117 116 0
-118 -2 0
-118 -3 0
-119 -1 0
-119 118 0
-120 -5 0
-120 -6 0
-121 -4 0
-121 120 0
-122 119 0
-122 121 0
-123 117 0
-123 122 0
-124 -115 0
-124 123 0
124 0
