p cnf 2032 6574
-43 28 0
-43 29 0
43 -28 -29 0
-44 1 0
-44 43 0
44 -1 -43 0
-45 29 0
-45 30 0
45 -29 -30 0
-46 28 0
-46 31 0
46 -28 -31 0
-47 45 0
-47 46 0
47 -45 -46 0
-48 -46 -45 0
-48 46 45 0
48 -46 45 0
48 46 -45 0
-49 2 0
-49 48 0
49 -2 -48 0
-50 -49 -44 0
-50 49 44 0
50 -49 44 0
50 49 -44 0
-51 2 0
-51 43 0
51 -2 -43 0
-52 3 0
-52 48 0
52 -3 -48 0
-53 51 0
-53 52 0
53 -51 -52 0
-54 -52 -51 0
-54 52 51 0
54 -52 51 0
54 52 -51 0
-55 3 0
-55 43 0
55 -3 -43 0
-56 4 0
-56 48 0
56 -4 -48 0
-57 55 0
-57 56 0
57 -55 -56 0
-58 -56 -55 0
-58 56 55 0
58 -56 55 0
58 56 -55 0
-59 4 0
-59 43 0
59 -4 -43 0
-60 5 0
-60 48 0
60 -5 -48 0
-61 59 0
-61 60 0
61 -59 -60 0
-62 -60 -59 0
-62 60 59 0
62 -60 59 0
62 60 -59 0
-63 5 0
-63 43 0
63 -5 -43 0
-64 6 0
-64 48 0
64 -6 -48 0
-65 63 0
-65 64 0
65 -63 -64 0
-66 -64 -63 0
-66 64 63 0
66 -64 63 0
66 64 -63 0
-67 6 0
-67 43 0
67 -6 -43 0
-68 7 0
-68 48 0
68 -7 -48 0
-69 67 0
-69 68 0
69 -67 -68 0
-70 -68 -67 0
-70 68 67 0
70 -68 67 0
70 68 -67 0
-71 7 0
-71 43 0
71 -7 -43 0
-72 8 0
-72 48 0
72 -8 -48 0
-73 71 0
-73 72 0
73 -71 -72 0
-74 -72 -71 0
-74 72 71 0
74 -72 71 0
74 72 -71 0
-75 8 0
-75 43 0
75 -8 -43 0
-76 9 0
-76 48 0
76 -9 -48 0
-77 75 0
-77 76 0
77 -75 -76 0
-78 -76 -75 0
-78 76 75 0
78 -76 75 0
78 76 -75 0
-79 9 0
-79 43 0
79 -9 -43 0
-80 32 0
-80 48 0
80 -32 -48 0
-81 79 0
-81 80 0
81 -79 -80 0
-82 -80 -79 0
-82 80 79 0
82 -80 79 0
82 80 -79 0
-83 32 0
-83 43 0
83 -32 -43 0
-84 33 0
-84 48 0
84 -33 -48 0
-85 83 0
-85 84 0
85 -83 -84 0
-86 -84 -83 0
-86 84 83 0
86 -84 83 0
86 84 -83 0
-87 33 0
-87 43 0
87 -33 -43 0
-88 34 0
-88 48 0
88 -34 -48 0
-89 87 0
-89 88 0
89 -87 -88 0
-90 -88 -87 0
-90 88 87 0
90 -88 87 0
90 88 -87 0
-91 34 0
-91 43 0
91 -34 -43 0
-92 35 0
-92 48 0
92 -35 -48 0
-93 91 0
-93 92 0
93 -91 -92 0
-94 -92 -91 0
-94 92 91 0
94 -92 91 0
94 92 -91 0
-95 35 0
-95 43 0
95 -35 -43 0
-96 36 0
-96 48 0
96 -36 -48 0
-97 95 0
-97 96 0
97 -95 -96 0
-98 94 0
-98 97 0
98 -94 -97 0
-99 -93 0
-99 -98 0
99 93 98 0
-100 90 0
-100 -99 0
100 -90 99 0
-101 -89 0
-101 -100 0
101 89 100 0
-102 86 0
-102 -101 0
102 -86 101 0
-103 -85 0
-103 -102 0
103 85 102 0
-104 82 0
-104 -103 0
104 -82 103 0
-105 -81 0
-105 -104 0
105 81 104 0
-106 78 0
-106 -105 0
106 -78 105 0
-107 -77 0
-107 -106 0
107 77 106 0
-108 74 0
-108 -107 0
108 -74 107 0
-109 -73 0
-109 -108 0
109 73 108 0
-110 70 0
-110 -109 0
110 -70 109 0
-111 -69 0
-111 -110 0
111 69 110 0
-112 66 0
-112 -111 0
112 -66 111 0
-113 -65 0
-113 -112 0
113 65 112 0
-114 62 0
-114 -113 0
114 -62 113 0
-115 -61 0
-115 -114 0
115 61 114 0
-116 58 0
-116 -115 0
116 -58 115 0
-117 -57 0
-117 -116 0
117 57 116 0
-118 54 0
-118 -117 0
118 -54 117 0
-119 -53 0
-119 -118 0
119 53 118 0
-120 119 -50 0
-120 -119 50 0
120 119 50 0
120 -119 -50 0
-121 29 0
-121 37 0
121 -29 -37 0
-122 30 0
-122 31 0
122 -30 -31 0
-123 121 0
-123 122 0
123 -121 -122 0
-124 -122 -121 0
-124 122 121 0
124 -122 121 0
124 122 -121 0
-125 47 0
-125 124 0
125 -47 -124 0
-126 -124 -47 0
-126 124 47 0
126 -124 47 0
126 124 -47 0
-127 28 0
-127 38 0
127 -28 -38 0
-128 126 0
-128 127 0
128 -126 -127 0
-129 -127 -126 0
-129 127 126 0
129 -127 126 0
129 127 -126 0
-130 3 0
-130 129 0
130 -3 -129 0
-131 -130 -120 0
-131 130 120 0
131 -130 120 0
131 130 -120 0
-132 117 -54 0
-132 -117 54 0
132 117 54 0
132 -117 -54 0
-133 4 0
-133 129 0
133 -4 -129 0
-134 132 0
-134 133 0
134 -132 -133 0
-135 -133 -132 0
-135 133 132 0
135 -133 132 0
135 133 -132 0
-136 115 -58 0
-136 -115 58 0
136 115 58 0
136 -115 -58 0
-137 5 0
-137 129 0
137 -5 -129 0
-138 136 0
-138 137 0
138 -136 -137 0
-139 -137 -136 0
-139 137 136 0
139 -137 136 0
139 137 -136 0
-140 113 -62 0
-140 -113 62 0
140 113 62 0
140 -113 -62 0
-141 6 0
-141 129 0
141 -6 -129 0
-142 140 0
-142 141 0
142 -140 -141 0
-143 -141 -140 0
-143 141 140 0
143 -141 140 0
143 141 -140 0
-144 111 -66 0
-144 -111 66 0
144 111 66 0
144 -111 -66 0
-145 7 0
-145 129 0
145 -7 -129 0
-146 144 0
-146 145 0
146 -144 -145 0
-147 -145 -144 0
-147 145 144 0
147 -145 144 0
147 145 -144 0
-148 109 -70 0
-148 -109 70 0
148 109 70 0
148 -109 -70 0
-149 8 0
-149 129 0
149 -8 -129 0
-150 148 0
-150 149 0
150 -148 -149 0
-151 -149 -148 0
-151 149 148 0
151 -149 148 0
151 149 -148 0
-152 107 -74 0
-152 -107 74 0
152 107 74 0
152 -107 -74 0
-153 9 0
-153 129 0
153 -9 -129 0
-154 152 0
-154 153 0
154 -152 -153 0
-155 -153 -152 0
-155 153 152 0
155 -153 152 0
155 153 -152 0
-156 105 -78 0
-156 -105 78 0
156 105 78 0
156 -105 -78 0
-157 32 0
-157 129 0
157 -32 -129 0
-158 156 0
-158 157 0
158 -156 -157 0
-159 -157 -156 0
-159 157 156 0
159 -157 156 0
159 157 -156 0
-160 103 -82 0
-160 -103 82 0
160 103 82 0
160 -103 -82 0
-161 33 0
-161 129 0
161 -33 -129 0
-162 160 0
-162 161 0
162 -160 -161 0
-163 -161 -160 0
-163 161 160 0
163 -161 160 0
163 161 -160 0
-164 101 -86 0
-164 -101 86 0
164 101 86 0
164 -101 -86 0
-165 34 0
-165 129 0
165 -34 -129 0
-166 164 0
-166 165 0
166 -164 -165 0
-167 -165 -164 0
-167 165 164 0
167 -165 164 0
167 165 -164 0
-168 99 -90 0
-168 -99 90 0
168 99 90 0
168 -99 -90 0
-169 35 0
-169 129 0
169 -35 -129 0
-170 168 0
-170 169 0
170 -168 -169 0
-171 -169 -168 0
-171 169 168 0
171 -169 168 0
171 169 -168 0
-172 -97 -94 0
-172 97 94 0
172 -97 94 0
172 97 -94 0
-173 36 0
-173 129 0
173 -36 -129 0
-174 172 0
-174 173 0
174 -172 -173 0
-175 171 0
-175 174 0
175 -171 -174 0
-176 -170 0
-176 -175 0
176 170 175 0
-177 167 0
-177 -176 0
177 -167 176 0
-178 -166 0
-178 -177 0
178 166 177 0
-179 163 0
-179 -178 0
179 -163 178 0
-180 -162 0
-180 -179 0
180 162 179 0
-181 159 0
-181 -180 0
181 -159 180 0
-182 -158 0
-182 -181 0
182 158 181 0
-183 155 0
-183 -182 0
183 -155 182 0
-184 -154 0
-184 -183 0
184 154 183 0
-185 151 0
-185 -184 0
185 -151 184 0
-186 -150 0
-186 -185 0
186 150 185 0
-187 147 0
-187 -186 0
187 -147 186 0
-188 -146 0
-188 -187 0
188 146 187 0
-189 143 0
-189 -188 0
189 -143 188 0
-190 -142 0
-190 -189 0
190 142 189 0
-191 139 0
-191 -190 0
191 -139 190 0
-192 -138 0
-192 -191 0
192 138 191 0
-193 135 0
-193 -192 0
193 -135 192 0
-194 -134 0
-194 -193 0
194 134 193 0
-195 194 -131 0
-195 -194 131 0
195 194 131 0
195 -194 -131 0
-196 29 0
-196 39 0
196 -29 -39 0
-197 31 0
-197 37 0
197 -31 -37 0
-198 196 0
-198 197 0
198 -196 -197 0
-199 -197 -196 0
-199 197 196 0
199 -197 196 0
199 197 -196 0
-200 -123 0
-200 -125 0
200 123 125 0
-201 199 0
-201 -200 0
201 -199 200 0
-202 200 -199 0
-202 -200 199 0
202 200 199 0
202 -200 -199 0
-203 30 0
-203 38 0
203 -30 -38 0
-204 202 0
-204 203 0
204 -202 -203 0
-205 -203 -202 0
-205 203 202 0
205 -203 202 0
205 203 -202 0
-206 128 0
-206 205 0
206 -128 -205 0
-207 -205 -128 0
-207 205 128 0
207 -205 128 0
207 205 -128 0
-208 28 0
-208 40 0
208 -28 -40 0
-209 207 0
-209 208 0
209 -207 -208 0
-210 -208 -207 0
-210 208 207 0
210 -208 207 0
210 208 -207 0
-211 4 0
-211 210 0
211 -4 -210 0
-212 -211 -195 0
-212 211 195 0
212 -211 195 0
212 211 -195 0
-213 192 -135 0
-213 -192 135 0
213 192 135 0
213 -192 -135 0
-214 5 0
-214 210 0
214 -5 -210 0
-215 213 0
-215 214 0
215 -213 -214 0
-216 -214 -213 0
-216 214 213 0
216 -214 213 0
216 214 -213 0
-217 190 -139 0
-217 -190 139 0
217 190 139 0
217 -190 -139 0
-218 6 0
-218 210 0
218 -6 -210 0
-219 217 0
-219 218 0
219 -217 -218 0
-220 -218 -217 0
-220 218 217 0
220 -218 217 0
220 218 -217 0
-221 188 -143 0
-221 -188 143 0
221 188 143 0
221 -188 -143 0
-222 7 0
-222 210 0
222 -7 -210 0
-223 221 0
-223 222 0
223 -221 -222 0
-224 -222 -221 0
-224 222 221 0
224 -222 221 0
224 222 -221 0
-225 186 -147 0
-225 -186 147 0
225 186 147 0
225 -186 -147 0
-226 8 0
-226 210 0
226 -8 -210 0
-227 225 0
-227 226 0
227 -225 -226 0
-228 -226 -225 0
-228 226 225 0
228 -226 225 0
228 226 -225 0
-229 184 -151 0
-229 -184 151 0
229 184 151 0
229 -184 -151 0
-230 9 0
-230 210 0
230 -9 -210 0
-231 229 0
-231 230 0
231 -229 -230 0
-232 -230 -229 0
-232 230 229 0
232 -230 229 0
232 230 -229 0
-233 182 -155 0
-233 -182 155 0
233 182 155 0
233 -182 -155 0
-234 32 0
-234 210 0
234 -32 -210 0
-235 233 0
-235 234 0
235 -233 -234 0
-236 -234 -233 0
-236 234 233 0
236 -234 233 0
236 234 -233 0
-237 180 -159 0
-237 -180 159 0
237 180 159 0
237 -180 -159 0
-238 33 0
-238 210 0
238 -33 -210 0
-239 237 0
-239 238 0
239 -237 -238 0
-240 -238 -237 0
-240 238 237 0
240 -238 237 0
240 238 -237 0
-241 178 -163 0
-241 -178 163 0
241 178 163 0
241 -178 -163 0
-242 34 0
-242 210 0
242 -34 -210 0
-243 241 0
-243 242 0
243 -241 -242 0
-244 -242 -241 0
-244 242 241 0
244 -242 241 0
244 242 -241 0
-245 176 -167 0
-245 -176 167 0
245 176 167 0
245 -176 -167 0
-246 35 0
-246 210 0
246 -35 -210 0
-247 245 0
-247 246 0
247 -245 -246 0
-248 -246 -245 0
-248 246 245 0
248 -246 245 0
248 246 -245 0
-249 -174 -171 0
-249 174 171 0
249 -174 171 0
249 174 -171 0
-250 36 0
-250 210 0
250 -36 -210 0
-251 249 0
-251 250 0
251 -249 -250 0
-252 248 0
-252 251 0
252 -248 -251 0
-253 -247 0
-253 -252 0
253 247 252 0
-254 244 0
-254 -253 0
254 -244 253 0
-255 -243 0
-255 -254 0
255 243 254 0
-256 240 0
-256 -255 0
256 -240 255 0
-257 -239 0
-257 -256 0
257 239 256 0
-258 236 0
-258 -257 0
258 -236 257 0
-259 -235 0
-259 -258 0
259 235 258 0
-260 232 0
-260 -259 0
260 -232 259 0
-261 -231 0
-261 -260 0
261 231 260 0
-262 228 0
-262 -261 0
262 -228 261 0
-263 -227 0
-263 -262 0
263 227 262 0
-264 224 0
-264 -263 0
264 -224 263 0
-265 -223 0
-265 -264 0
265 223 264 0
-266 220 0
-266 -265 0
266 -220 265 0
-267 -219 0
-267 -266 0
267 219 266 0
-268 216 0
-268 -267 0
268 -216 267 0
-269 -215 0
-269 -268 0
269 215 268 0
-270 269 -212 0
-270 -269 212 0
270 269 212 0
270 -269 -212 0
-271 29 0
-271 41 0
271 -29 -41 0
-272 31 0
-272 39 0
272 -31 -39 0
-273 271 0
-273 272 0
273 -271 -272 0
-274 -272 -271 0
-274 272 271 0
274 -272 271 0
274 272 -271 0
-275 -198 0
-275 -201 0
275 198 201 0
-276 274 0
-276 -275 0
276 -274 275 0
-277 275 -274 0
-277 -275 274 0
277 275 274 0
277 -275 -274 0
-278 37 0
-278 38 0
278 -37 -38 0
-279 277 0
-279 278 0
279 -277 -278 0
-280 -278 -277 0
-280 278 277 0
280 -278 277 0
280 278 -277 0
-281 -204 0
-281 -206 0
281 204 206 0
-282 280 0
-282 -281 0
282 -280 281 0
-283 281 -280 0
-283 -281 280 0
283 281 280 0
283 -281 -280 0
-284 30 0
-284 40 0
284 -30 -40 0
-285 283 0
-285 284 0
285 -283 -284 0
-286 -284 -283 0
-286 284 283 0
286 -284 283 0
286 284 -283 0
-287 209 0
-287 286 0
287 -209 -286 0
-288 -286 -209 0
-288 286 209 0
288 -286 209 0
288 286 -209 0
-289 28 0
-289 42 0
289 -28 -42 0
-290 288 0
-290 289 0
290 -288 -289 0
-291 -289 -288 0
-291 289 288 0
291 -289 288 0
291 289 -288 0
-292 5 0
-292 291 0
292 -5 -291 0
-293 -292 -270 0
-293 292 270 0
293 -292 270 0
293 292 -270 0
-294 267 -216 0
-294 -267 216 0
294 267 216 0
294 -267 -216 0
-295 6 0
-295 291 0
295 -6 -291 0
-296 294 0
-296 295 0
296 -294 -295 0
-297 -295 -294 0
-297 295 294 0
297 -295 294 0
297 295 -294 0
-298 265 -220 0
-298 -265 220 0
298 265 220 0
298 -265 -220 0
-299 7 0
-299 291 0
299 -7 -291 0
-300 298 0
-300 299 0
300 -298 -299 0
-301 -299 -298 0
-301 299 298 0
301 -299 298 0
301 299 -298 0
-302 263 -224 0
-302 -263 224 0
302 263 224 0
302 -263 -224 0
-303 8 0
-303 291 0
303 -8 -291 0
-304 302 0
-304 303 0
304 -302 -303 0
-305 -303 -302 0
-305 303 302 0
305 -303 302 0
305 303 -302 0
-306 261 -228 0
-306 -261 228 0
306 261 228 0
306 -261 -228 0
-307 9 0
-307 291 0
307 -9 -291 0
-308 306 0
-308 307 0
308 -306 -307 0
-309 -307 -306 0
-309 307 306 0
309 -307 306 0
309 307 -306 0
-310 259 -232 0
-310 -259 232 0
310 259 232 0
310 -259 -232 0
-311 32 0
-311 291 0
311 -32 -291 0
-312 310 0
-312 311 0
312 -310 -311 0
-313 -311 -310 0
-313 311 310 0
313 -311 310 0
313 311 -310 0
-314 257 -236 0
-314 -257 236 0
314 257 236 0
314 -257 -236 0
-315 33 0
-315 291 0
315 -33 -291 0
-316 314 0
-316 315 0
316 -314 -315 0
-317 -315 -314 0
-317 315 314 0
317 -315 314 0
317 315 -314 0
-318 255 -240 0
-318 -255 240 0
318 255 240 0
318 -255 -240 0
-319 34 0
-319 291 0
319 -34 -291 0
-320 318 0
-320 319 0
320 -318 -319 0
-321 -319 -318 0
-321 319 318 0
321 -319 318 0
321 319 -318 0
-322 253 -244 0
-322 -253 244 0
322 253 244 0
322 -253 -244 0
-323 35 0
-323 291 0
323 -35 -291 0
-324 322 0
-324 323 0
324 -322 -323 0
-325 -323 -322 0
-325 323 322 0
325 -323 322 0
325 323 -322 0
-326 -251 -248 0
-326 251 248 0
326 -251 248 0
326 251 -248 0
-327 36 0
-327 291 0
327 -36 -291 0
-328 326 0
-328 327 0
328 -326 -327 0
-329 325 0
-329 328 0
329 -325 -328 0
-330 -324 0
-330 -329 0
330 324 329 0
-331 321 0
-331 -330 0
331 -321 330 0
-332 -320 0
-332 -331 0
332 320 331 0
-333 317 0
-333 -332 0
333 -317 332 0
-334 -316 0
-334 -333 0
334 316 333 0
-335 313 0
-335 -334 0
335 -313 334 0
-336 -312 0
-336 -335 0
336 312 335 0
-337 309 0
-337 -336 0
337 -309 336 0
-338 -308 0
-338 -337 0
338 308 337 0
-339 305 0
-339 -338 0
339 -305 338 0
-340 -304 0
-340 -339 0
340 304 339 0
-341 301 0
-341 -340 0
341 -301 340 0
-342 -300 0
-342 -341 0
342 300 341 0
-343 297 0
-343 -342 0
343 -297 342 0
-344 -296 0
-344 -343 0
344 296 343 0
-345 344 -293 0
-345 -344 293 0
345 344 293 0
345 -344 -293 0
-346 18 0
-346 29 0
346 -18 -29 0
-347 31 0
-347 41 0
347 -31 -41 0
-348 346 0
-348 347 0
348 -346 -347 0
-349 -347 -346 0
-349 347 346 0
349 -347 346 0
349 347 -346 0
-350 -273 0
-350 -276 0
350 273 276 0
-351 349 0
-351 -350 0
351 -349 350 0
-352 350 -349 0
-352 -350 349 0
352 350 349 0
352 -350 -349 0
-353 38 0
-353 39 0
353 -38 -39 0
-354 352 0
-354 353 0
354 -352 -353 0
-355 -353 -352 0
-355 353 352 0
355 -353 352 0
355 353 -352 0
-356 -279 0
-356 -282 0
356 279 282 0
-357 355 0
-357 -356 0
357 -355 356 0
-358 356 -355 0
-358 -356 355 0
358 356 355 0
358 -356 -355 0
-359 37 0
-359 40 0
359 -37 -40 0
-360 358 0
-360 359 0
360 -358 -359 0
-361 -359 -358 0
-361 359 358 0
361 -359 358 0
361 359 -358 0
-362 -285 0
-362 -287 0
362 285 287 0
-363 361 0
-363 -362 0
363 -361 362 0
-364 362 -361 0
-364 -362 361 0
364 362 361 0
364 -362 -361 0
-365 30 0
-365 42 0
365 -30 -42 0
-366 364 0
-366 365 0
366 -364 -365 0
-367 -365 -364 0
-367 365 364 0
367 -365 364 0
367 365 -364 0
-368 290 0
-368 367 0
368 -290 -367 0
-369 -367 -290 0
-369 367 290 0
369 -367 290 0
369 367 -290 0
-370 27 0
-370 28 0
370 -27 -28 0
-371 369 0
-371 370 0
371 -369 -370 0
-372 -370 -369 0
-372 370 369 0
372 -370 369 0
372 370 -369 0
-373 6 0
-373 372 0
373 -6 -372 0
-374 -373 -345 0
-374 373 345 0
374 -373 345 0
374 373 -345 0
-375 342 -297 0
-375 -342 297 0
375 342 297 0
375 -342 -297 0
-376 7 0
-376 372 0
376 -7 -372 0
-377 375 0
-377 376 0
377 -375 -376 0
-378 -376 -375 0
-378 376 375 0
378 -376 375 0
378 376 -375 0
-379 340 -301 0
-379 -340 301 0
379 340 301 0
379 -340 -301 0
-380 8 0
-380 372 0
380 -8 -372 0
-381 379 0
-381 380 0
381 -379 -380 0
-382 -380 -379 0
-382 380 379 0
382 -380 379 0
382 380 -379 0
-383 338 -305 0
-383 -338 305 0
383 338 305 0
383 -338 -305 0
-384 9 0
-384 372 0
384 -9 -372 0
-385 383 0
-385 384 0
385 -383 -384 0
-386 -384 -383 0
-386 384 383 0
386 -384 383 0
386 384 -383 0
-387 336 -309 0
-387 -336 309 0
387 336 309 0
387 -336 -309 0
-388 32 0
-388 372 0
388 -32 -372 0
-389 387 0
-389 388 0
389 -387 -388 0
-390 -388 -387 0
-390 388 387 0
390 -388 387 0
390 388 -387 0
-391 334 -313 0
-391 -334 313 0
391 334 313 0
391 -334 -313 0
-392 33 0
-392 372 0
392 -33 -372 0
-393 391 0
-393 392 0
393 -391 -392 0
-394 -392 -391 0
-394 392 391 0
394 -392 391 0
394 392 -391 0
-395 332 -317 0
-395 -332 317 0
395 332 317 0
395 -332 -317 0
-396 34 0
-396 372 0
396 -34 -372 0
-397 395 0
-397 396 0
397 -395 -396 0
-398 -396 -395 0
-398 396 395 0
398 -396 395 0
398 396 -395 0
-399 330 -321 0
-399 -330 321 0
399 330 321 0
399 -330 -321 0
-400 35 0
-400 372 0
400 -35 -372 0
-401 399 0
-401 400 0
401 -399 -400 0
-402 -400 -399 0
-402 400 399 0
402 -400 399 0
402 400 -399 0
-403 -328 -325 0
-403 328 325 0
403 -328 325 0
403 328 -325 0
-404 36 0
-404 372 0
404 -36 -372 0
-405 403 0
-405 404 0
405 -403 -404 0
-406 402 0
-406 405 0
406 -402 -405 0
-407 -401 0
-407 -406 0
407 401 406 0
-408 398 0
-408 -407 0
408 -398 407 0
-409 -397 0
-409 -408 0
409 397 408 0
-410 394 0
-410 -409 0
410 -394 409 0
-411 -393 0
-411 -410 0
411 393 410 0
-412 390 0
-412 -411 0
412 -390 411 0
-413 -389 0
-413 -412 0
413 389 412 0
-414 386 0
-414 -413 0
414 -386 413 0
-415 -385 0
-415 -414 0
415 385 414 0
-416 382 0
-416 -415 0
416 -382 415 0
-417 -381 0
-417 -416 0
417 381 416 0
-418 378 0
-418 -417 0
418 -378 417 0
-419 -377 0
-419 -418 0
419 377 418 0
-420 419 -374 0
-420 -419 374 0
420 419 374 0
420 -419 -374 0
-421 17 0
-421 29 0
421 -17 -29 0
-422 18 0
-422 31 0
422 -18 -31 0
-423 421 0
-423 422 0
423 -421 -422 0
-424 -422 -421 0
-424 422 421 0
424 -422 421 0
424 422 -421 0
-425 -348 0
-425 -351 0
425 348 351 0
-426 424 0
-426 -425 0
426 -424 425 0
-427 425 -424 0
-427 -425 424 0
427 425 424 0
427 -425 -424 0
-428 38 0
-428 41 0
428 -38 -41 0
-429 427 0
-429 428 0
429 -427 -428 0
-430 -428 -427 0
-430 428 427 0
430 -428 427 0
430 428 -427 0
-431 -354 0
-431 -357 0
431 354 357 0
-432 430 0
-432 -431 0
432 -430 431 0
-433 431 -430 0
-433 -431 430 0
433 431 430 0
433 -431 -430 0
-434 39 0
-434 40 0
434 -39 -40 0
-435 433 0
-435 434 0
435 -433 -434 0
-436 -434 -433 0
-436 434 433 0
436 -434 433 0
436 434 -433 0
-437 -360 0
-437 -363 0
437 360 363 0
-438 436 0
-438 -437 0
438 -436 437 0
-439 437 -436 0
-439 -437 436 0
439 437 436 0
439 -437 -436 0
-440 37 0
-440 42 0
440 -37 -42 0
-441 439 0
-441 440 0
441 -439 -440 0
-442 -440 -439 0
-442 440 439 0
442 -440 439 0
442 440 -439 0
-443 -366 0
-443 -368 0
443 366 368 0
-444 442 0
-444 -443 0
444 -442 443 0
-445 443 -442 0
-445 -443 442 0
445 443 442 0
445 -443 -442 0
-446 27 0
-446 30 0
446 -27 -30 0
-447 445 0
-447 446 0
447 -445 -446 0
-448 -446 -445 0
-448 446 445 0
448 -446 445 0
448 446 -445 0
-449 371 0
-449 448 0
449 -371 -448 0
-450 -448 -371 0
-450 448 371 0
450 -448 371 0
450 448 -371 0
-451 26 0
-451 28 0
451 -26 -28 0
-452 450 0
-452 451 0
452 -450 -451 0
-453 -451 -450 0
-453 451 450 0
453 -451 450 0
453 451 -450 0
-454 7 0
-454 453 0
454 -7 -453 0
-455 -454 -420 0
-455 454 420 0
455 -454 420 0
455 454 -420 0
-456 417 -378 0
-456 -417 378 0
456 417 378 0
456 -417 -378 0
-457 8 0
-457 453 0
457 -8 -453 0
-458 456 0
-458 457 0
458 -456 -457 0
-459 -457 -456 0
-459 457 456 0
459 -457 456 0
459 457 -456 0
-460 415 -382 0
-460 -415 382 0
460 415 382 0
460 -415 -382 0
-461 9 0
-461 453 0
461 -9 -453 0
-462 460 0
-462 461 0
462 -460 -461 0
-463 -461 -460 0
-463 461 460 0
463 -461 460 0
463 461 -460 0
-464 413 -386 0
-464 -413 386 0
464 413 386 0
464 -413 -386 0
-465 32 0
-465 453 0
465 -32 -453 0
-466 464 0
-466 465 0
466 -464 -465 0
-467 -465 -464 0
-467 465 464 0
467 -465 464 0
467 465 -464 0
-468 411 -390 0
-468 -411 390 0
468 411 390 0
468 -411 -390 0
-469 33 0
-469 453 0
469 -33 -453 0
-470 468 0
-470 469 0
470 -468 -469 0
-471 -469 -468 0
-471 469 468 0
471 -469 468 0
471 469 -468 0
-472 409 -394 0
-472 -409 394 0
472 409 394 0
472 -409 -394 0
-473 34 0
-473 453 0
473 -34 -453 0
-474 472 0
-474 473 0
474 -472 -473 0
-475 -473 -472 0
-475 473 472 0
475 -473 472 0
475 473 -472 0
-476 407 -398 0
-476 -407 398 0
476 407 398 0
476 -407 -398 0
-477 35 0
-477 453 0
477 -35 -453 0
-478 476 0
-478 477 0
478 -476 -477 0
-479 -477 -476 0
-479 477 476 0
479 -477 476 0
479 477 -476 0
-480 -405 -402 0
-480 405 402 0
480 -405 402 0
480 405 -402 0
-481 36 0
-481 453 0
481 -36 -453 0
-482 480 0
-482 481 0
482 -480 -481 0
-483 479 0
-483 482 0
483 -479 -482 0
-484 -478 0
-484 -483 0
484 478 483 0
-485 475 0
-485 -484 0
485 -475 484 0
-486 -474 0
-486 -485 0
486 474 485 0
-487 471 0
-487 -486 0
487 -471 486 0
-488 -470 0
-488 -487 0
488 470 487 0
-489 467 0
-489 -488 0
489 -467 488 0
-490 -466 0
-490 -489 0
490 466 489 0
-491 463 0
-491 -490 0
491 -463 490 0
-492 -462 0
-492 -491 0
492 462 491 0
-493 459 0
-493 -492 0
493 -459 492 0
-494 -458 0
-494 -493 0
494 458 493 0
-495 494 -455 0
-495 -494 455 0
495 494 455 0
495 -494 -455 0
-496 16 0
-496 29 0
496 -16 -29 0
-497 17 0
-497 31 0
497 -17 -31 0
-498 496 0
-498 497 0
498 -496 -497 0
-499 -497 -496 0
-499 497 496 0
499 -497 496 0
499 497 -496 0
-500 -423 0
-500 -426 0
500 423 426 0
-501 499 0
-501 -500 0
501 -499 500 0
-502 500 -499 0
-502 -500 499 0
502 500 499 0
502 -500 -499 0
-503 18 0
-503 38 0
503 -18 -38 0
-504 502 0
-504 503 0
504 -502 -503 0
-505 -503 -502 0
-505 503 502 0
505 -503 502 0
505 503 -502 0
-506 -429 0
-506 -432 0
506 429 432 0
-507 505 0
-507 -506 0
507 -505 506 0
-508 506 -505 0
-508 -506 505 0
508 506 505 0
508 -506 -505 0
-509 40 0
-509 41 0
509 -40 -41 0
-510 508 0
-510 509 0
510 -508 -509 0
-511 -509 -508 0
-511 509 508 0
511 -509 508 0
511 509 -508 0
-512 -435 0
-512 -438 0
512 435 438 0
-513 511 0
-513 -512 0
513 -511 512 0
-514 512 -511 0
-514 -512 511 0
514 512 511 0
514 -512 -511 0
-515 39 0
-515 42 0
515 -39 -42 0
-516 514 0
-516 515 0
516 -514 -515 0
-517 -515 -514 0
-517 515 514 0
517 -515 514 0
517 515 -514 0
-518 -441 0
-518 -444 0
518 441 444 0
-519 517 0
-519 -518 0
519 -517 518 0
-520 518 -517 0
-520 -518 517 0
520 518 517 0
520 -518 -517 0
-521 27 0
-521 37 0
521 -27 -37 0
-522 520 0
-522 521 0
522 -520 -521 0
-523 -521 -520 0
-523 521 520 0
523 -521 520 0
523 521 -520 0
-524 -447 0
-524 -449 0
524 447 449 0
-525 523 0
-525 -524 0
525 -523 524 0
-526 524 -523 0
-526 -524 523 0
526 524 523 0
526 -524 -523 0
-527 26 0
-527 30 0
527 -26 -30 0
-528 526 0
-528 527 0
528 -526 -527 0
-529 -527 -526 0
-529 527 526 0
529 -527 526 0
529 527 -526 0
-530 452 0
-530 529 0
530 -452 -529 0
-531 -529 -452 0
-531 529 452 0
531 -529 452 0
531 529 -452 0
-532 25 0
-532 28 0
532 -25 -28 0
-533 531 0
-533 532 0
533 -531 -532 0
-534 -532 -531 0
-534 532 531 0
534 -532 531 0
534 532 -531 0
-535 8 0
-535 534 0
535 -8 -534 0
-536 -535 -495 0
-536 535 495 0
536 -535 495 0
536 535 -495 0
-537 492 -459 0
-537 -492 459 0
537 492 459 0
537 -492 -459 0
-538 9 0
-538 534 0
538 -9 -534 0
-539 537 0
-539 538 0
539 -537 -538 0
-540 -538 -537 0
-540 538 537 0
540 -538 537 0
540 538 -537 0
-541 490 -463 0
-541 -490 463 0
541 490 463 0
541 -490 -463 0
-542 32 0
-542 534 0
542 -32 -534 0
-543 541 0
-543 542 0
543 -541 -542 0
-544 -542 -541 0
-544 542 541 0
544 -542 541 0
544 542 -541 0
-545 488 -467 0
-545 -488 467 0
545 488 467 0
545 -488 -467 0
-546 33 0
-546 534 0
546 -33 -534 0
-547 545 0
-547 546 0
547 -545 -546 0
-548 -546 -545 0
-548 546 545 0
548 -546 545 0
548 546 -545 0
-549 486 -471 0
-549 -486 471 0
549 486 471 0
549 -486 -471 0
-550 34 0
-550 534 0
550 -34 -534 0
-551 549 0
-551 550 0
551 -549 -550 0
-552 -550 -549 0
-552 550 549 0
552 -550 549 0
552 550 -549 0
-553 484 -475 0
-553 -484 475 0
553 484 475 0
553 -484 -475 0
-554 35 0
-554 534 0
554 -35 -534 0
-555 553 0
-555 554 0
555 -553 -554 0
-556 -554 -553 0
-556 554 553 0
556 -554 553 0
556 554 -553 0
-557 -482 -479 0
-557 482 479 0
557 -482 479 0
557 482 -479 0
-558 36 0
-558 534 0
558 -36 -534 0
-559 557 0
-559 558 0
559 -557 -558 0
-560 556 0
-560 559 0
560 -556 -559 0
-561 -555 0
-561 -560 0
561 555 560 0
-562 552 0
-562 -561 0
562 -552 561 0
-563 -551 0
-563 -562 0
563 551 562 0
-564 548 0
-564 -563 0
564 -548 563 0
-565 -547 0
-565 -564 0
565 547 564 0
-566 544 0
-566 -565 0
566 -544 565 0
-567 -543 0
-567 -566 0
567 543 566 0
-568 540 0
-568 -567 0
568 -540 567 0
-569 -539 0
-569 -568 0
569 539 568 0
-570 569 -536 0
-570 -569 536 0
570 569 536 0
570 -569 -536 0
-571 15 0
-571 29 0
571 -15 -29 0
-572 16 0
-572 31 0
572 -16 -31 0
-573 571 0
-573 572 0
573 -571 -572 0
-574 -572 -571 0
-574 572 571 0
574 -572 571 0
574 572 -571 0
-575 -498 0
-575 -501 0
575 498 501 0
-576 574 0
-576 -575 0
576 -574 575 0
-577 575 -574 0
-577 -575 574 0
577 575 574 0
577 -575 -574 0
-578 17 0
-578 38 0
578 -17 -38 0
-579 577 0
-579 578 0
579 -577 -578 0
-580 -578 -577 0
-580 578 577 0
580 -578 577 0
580 578 -577 0
-581 -504 0
-581 -507 0
581 504 507 0
-582 580 0
-582 -581 0
582 -580 581 0
-583 581 -580 0
-583 -581 580 0
583 581 580 0
583 -581 -580 0
-584 18 0
-584 40 0
584 -18 -40 0
-585 583 0
-585 584 0
585 -583 -584 0
-586 -584 -583 0
-586 584 583 0
586 -584 583 0
586 584 -583 0
-587 -510 0
-587 -513 0
587 510 513 0
-588 586 0
-588 -587 0
588 -586 587 0
-589 587 -586 0
-589 -587 586 0
589 587 586 0
589 -587 -586 0
-590 41 0
-590 42 0
590 -41 -42 0
-591 589 0
-591 590 0
591 -589 -590 0
-592 -590 -589 0
-592 590 589 0
592 -590 589 0
592 590 -589 0
-593 -516 0
-593 -519 0
593 516 519 0
-594 592 0
-594 -593 0
594 -592 593 0
-595 593 -592 0
-595 -593 592 0
595 593 592 0
595 -593 -592 0
-596 27 0
-596 39 0
596 -27 -39 0
-597 595 0
-597 596 0
597 -595 -596 0
-598 -596 -595 0
-598 596 595 0
598 -596 595 0
598 596 -595 0
-599 -522 0
-599 -525 0
599 522 525 0
-600 598 0
-600 -599 0
600 -598 599 0
-601 599 -598 0
-601 -599 598 0
601 599 598 0
601 -599 -598 0
-602 26 0
-602 37 0
602 -26 -37 0
-603 601 0
-603 602 0
603 -601 -602 0
-604 -602 -601 0
-604 602 601 0
604 -602 601 0
604 602 -601 0
-605 -528 0
-605 -530 0
605 528 530 0
-606 604 0
-606 -605 0
606 -604 605 0
-607 605 -604 0
-607 -605 604 0
607 605 604 0
607 -605 -604 0
-608 25 0
-608 30 0
608 -25 -30 0
-609 607 0
-609 608 0
609 -607 -608 0
-610 -608 -607 0
-610 608 607 0
610 -608 607 0
610 608 -607 0
-611 533 0
-611 610 0
611 -533 -610 0
-612 -610 -533 0
-612 610 533 0
612 -610 533 0
612 610 -533 0
-613 24 0
-613 28 0
613 -24 -28 0
-614 612 0
-614 613 0
614 -612 -613 0
-615 -613 -612 0
-615 613 612 0
615 -613 612 0
615 613 -612 0
-616 9 0
-616 615 0
616 -9 -615 0
-617 -616 -570 0
-617 616 570 0
617 -616 570 0
617 616 -570 0
-618 567 -540 0
-618 -567 540 0
618 567 540 0
618 -567 -540 0
-619 32 0
-619 615 0
619 -32 -615 0
-620 618 0
-620 619 0
620 -618 -619 0
-621 -619 -618 0
-621 619 618 0
621 -619 618 0
621 619 -618 0
-622 565 -544 0
-622 -565 544 0
622 565 544 0
622 -565 -544 0
-623 33 0
-623 615 0
623 -33 -615 0
-624 622 0
-624 623 0
624 -622 -623 0
-625 -623 -622 0
-625 623 622 0
625 -623 622 0
625 623 -622 0
-626 563 -548 0
-626 -563 548 0
626 563 548 0
626 -563 -548 0
-627 34 0
-627 615 0
627 -34 -615 0
-628 626 0
-628 627 0
628 -626 -627 0
-629 -627 -626 0
-629 627 626 0
629 -627 626 0
629 627 -626 0
-630 561 -552 0
-630 -561 552 0
630 561 552 0
630 -561 -552 0
-631 35 0
-631 615 0
631 -35 -615 0
-632 630 0
-632 631 0
632 -630 -631 0
-633 -631 -630 0
-633 631 630 0
633 -631 630 0
633 631 -630 0
-634 -559 -556 0
-634 559 556 0
634 -559 556 0
634 559 -556 0
-635 36 0
-635 615 0
635 -36 -615 0
-636 634 0
-636 635 0
636 -634 -635 0
-637 633 0
-637 636 0
637 -633 -636 0
-638 -632 0
-638 -637 0
638 632 637 0
-639 629 0
-639 -638 0
639 -629 638 0
-640 -628 0
-640 -639 0
640 628 639 0
-641 625 0
-641 -640 0
641 -625 640 0
-642 -624 0
-642 -641 0
642 624 641 0
-643 621 0
-643 -642 0
643 -621 642 0
-644 -620 0
-644 -643 0
644 620 643 0
-645 644 -617 0
-645 -644 617 0
645 644 617 0
645 -644 -617 0
-646 14 0
-646 29 0
646 -14 -29 0
-647 15 0
-647 31 0
647 -15 -31 0
-648 646 0
-648 647 0
648 -646 -647 0
-649 -647 -646 0
-649 647 646 0
649 -647 646 0
649 647 -646 0
-650 -573 0
-650 -576 0
650 573 576 0
-651 649 0
-651 -650 0
651 -649 650 0
-652 650 -649 0
-652 -650 649 0
652 650 649 0
652 -650 -649 0
-653 16 0
-653 38 0
653 -16 -38 0
-654 652 0
-654 653 0
654 -652 -653 0
-655 -653 -652 0
-655 653 652 0
655 -653 652 0
655 653 -652 0
-656 -579 0
-656 -582 0
656 579 582 0
-657 655 0
-657 -656 0
657 -655 656 0
-658 656 -655 0
-658 -656 655 0
658 656 655 0
658 -656 -655 0
-659 17 0
-659 40 0
659 -17 -40 0
-660 658 0
-660 659 0
660 -658 -659 0
-661 -659 -658 0
-661 659 658 0
661 -659 658 0
661 659 -658 0
-662 -585 0
-662 -588 0
662 585 588 0
-663 661 0
-663 -662 0
663 -661 662 0
-664 662 -661 0
-664 -662 661 0
664 662 661 0
664 -662 -661 0
-665 18 0
-665 42 0
665 -18 -42 0
-666 664 0
-666 665 0
666 -664 -665 0
-667 -665 -664 0
-667 665 664 0
667 -665 664 0
667 665 -664 0
-668 -591 0
-668 -594 0
668 591 594 0
-669 667 0
-669 -668 0
669 -667 668 0
-670 668 -667 0
-670 -668 667 0
670 668 667 0
670 -668 -667 0
-671 27 0
-671 41 0
671 -27 -41 0
-672 670 0
-672 671 0
672 -670 -671 0
-673 -671 -670 0
-673 671 670 0
673 -671 670 0
673 671 -670 0
-674 -597 0
-674 -600 0
674 597 600 0
-675 673 0
-675 -674 0
675 -673 674 0
-676 674 -673 0
-676 -674 673 0
676 674 673 0
676 -674 -673 0
-677 26 0
-677 39 0
677 -26 -39 0
-678 676 0
-678 677 0
678 -676 -677 0
-679 -677 -676 0
-679 677 676 0
679 -677 676 0
679 677 -676 0
-680 -603 0
-680 -606 0
680 603 606 0
-681 679 0
-681 -680 0
681 -679 680 0
-682 680 -679 0
-682 -680 679 0
682 680 679 0
682 -680 -679 0
-683 25 0
-683 37 0
683 -25 -37 0
-684 682 0
-684 683 0
684 -682 -683 0
-685 -683 -682 0
-685 683 682 0
685 -683 682 0
685 683 -682 0
-686 -609 0
-686 -611 0
686 609 611 0
-687 685 0
-687 -686 0
687 -685 686 0
-688 686 -685 0
-688 -686 685 0
688 686 685 0
688 -686 -685 0
-689 24 0
-689 30 0
689 -24 -30 0
-690 688 0
-690 689 0
690 -688 -689 0
-691 -689 -688 0
-691 689 688 0
691 -689 688 0
691 689 -688 0
-692 614 0
-692 691 0
692 -614 -691 0
-693 -691 -614 0
-693 691 614 0
693 -691 614 0
693 691 -614 0
-694 23 0
-694 28 0
694 -23 -28 0
-695 693 0
-695 694 0
695 -693 -694 0
-696 -694 -693 0
-696 694 693 0
696 -694 693 0
696 694 -693 0
-697 32 0
-697 696 0
697 -32 -696 0
-698 -697 -645 0
-698 697 645 0
698 -697 645 0
698 697 -645 0
-699 642 -621 0
-699 -642 621 0
699 642 621 0
699 -642 -621 0
-700 33 0
-700 696 0
700 -33 -696 0
-701 699 0
-701 700 0
701 -699 -700 0
-702 -700 -699 0
-702 700 699 0
702 -700 699 0
702 700 -699 0
-703 640 -625 0
-703 -640 625 0
703 640 625 0
703 -640 -625 0
-704 34 0
-704 696 0
704 -34 -696 0
-705 703 0
-705 704 0
705 -703 -704 0
-706 -704 -703 0
-706 704 703 0
706 -704 703 0
706 704 -703 0
-707 638 -629 0
-707 -638 629 0
707 638 629 0
707 -638 -629 0
-708 35 0
-708 696 0
708 -35 -696 0
-709 707 0
-709 708 0
709 -707 -708 0
-710 -708 -707 0
-710 708 707 0
710 -708 707 0
710 708 -707 0
-711 -636 -633 0
-711 636 633 0
711 -636 633 0
711 636 -633 0
-712 36 0
-712 696 0
712 -36 -696 0
-713 711 0
-713 712 0
713 -711 -712 0
-714 710 0
-714 713 0
714 -710 -713 0
-715 -709 0
-715 -714 0
715 709 714 0
-716 706 0
-716 -715 0
716 -706 715 0
-717 -705 0
-717 -716 0
717 705 716 0
-718 702 0
-718 -717 0
718 -702 717 0
-719 -701 0
-719 -718 0
719 701 718 0
-720 719 -698 0
-720 -719 698 0
720 719 698 0
720 -719 -698 0
-721 13 0
-721 29 0
721 -13 -29 0
-722 14 0
-722 31 0
722 -14 -31 0
-723 721 0
-723 722 0
723 -721 -722 0
-724 -722 -721 0
-724 722 721 0
724 -722 721 0
724 722 -721 0
-725 -648 0
-725 -651 0
725 648 651 0
-726 724 0
-726 -725 0
726 -724 725 0
-727 725 -724 0
-727 -725 724 0
727 725 724 0
727 -725 -724 0
-728 15 0
-728 38 0
728 -15 -38 0
-729 727 0
-729 728 0
729 -727 -728 0
-730 -728 -727 0
-730 728 727 0
730 -728 727 0
730 728 -727 0
-731 -654 0
-731 -657 0
731 654 657 0
-732 730 0
-732 -731 0
732 -730 731 0
-733 731 -730 0
-733 -731 730 0
733 731 730 0
733 -731 -730 0
-734 16 0
-734 40 0
734 -16 -40 0
-735 733 0
-735 734 0
735 -733 -734 0
-736 -734 -733 0
-736 734 733 0
736 -734 733 0
736 734 -733 0
-737 -660 0
-737 -663 0
737 660 663 0
-738 736 0
-738 -737 0
738 -736 737 0
-739 737 -736 0
-739 -737 736 0
739 737 736 0
739 -737 -736 0
-740 17 0
-740 42 0
740 -17 -42 0
-741 739 0
-741 740 0
741 -739 -740 0
-742 -740 -739 0
-742 740 739 0
742 -740 739 0
742 740 -739 0
-743 -666 0
-743 -669 0
743 666 669 0
-744 742 0
-744 -743 0
744 -742 743 0
-745 743 -742 0
-745 -743 742 0
745 743 742 0
745 -743 -742 0
-746 18 0
-746 27 0
746 -18 -27 0
-747 745 0
-747 746 0
747 -745 -746 0
-748 -746 -745 0
-748 746 745 0
748 -746 745 0
748 746 -745 0
-749 -672 0
-749 -675 0
749 672 675 0
-750 748 0
-750 -749 0
750 -748 749 0
-751 749 -748 0
-751 -749 748 0
751 749 748 0
751 -749 -748 0
-752 26 0
-752 41 0
752 -26 -41 0
-753 751 0
-753 752 0
753 -751 -752 0
-754 -752 -751 0
-754 752 751 0
754 -752 751 0
754 752 -751 0
-755 -678 0
-755 -681 0
755 678 681 0
-756 754 0
-756 -755 0
756 -754 755 0
-757 755 -754 0
-757 -755 754 0
757 755 754 0
757 -755 -754 0
-758 25 0
-758 39 0
758 -25 -39 0
-759 757 0
-759 758 0
759 -757 -758 0
-760 -758 -757 0
-760 758 757 0
760 -758 757 0
760 758 -757 0
-761 -684 0
-761 -687 0
761 684 687 0
-762 760 0
-762 -761 0
762 -760 761 0
-763 761 -760 0
-763 -761 760 0
763 761 760 0
763 -761 -760 0
-764 24 0
-764 37 0
764 -24 -37 0
-765 763 0
-765 764 0
765 -763 -764 0
-766 -764 -763 0
-766 764 763 0
766 -764 763 0
766 764 -763 0
-767 -690 0
-767 -692 0
767 690 692 0
-768 766 0
-768 -767 0
768 -766 767 0
-769 767 -766 0
-769 -767 766 0
769 767 766 0
769 -767 -766 0
-770 23 0
-770 30 0
770 -23 -30 0
-771 769 0
-771 770 0
771 -769 -770 0
-772 -770 -769 0
-772 770 769 0
772 -770 769 0
772 770 -769 0
-773 695 0
-773 772 0
773 -695 -772 0
-774 -772 -695 0
-774 772 695 0
774 -772 695 0
774 772 -695 0
-775 22 0
-775 28 0
775 -22 -28 0
-776 774 0
-776 775 0
776 -774 -775 0
-777 -775 -774 0
-777 775 774 0
777 -775 774 0
777 775 -774 0
-778 33 0
-778 777 0
778 -33 -777 0
-779 -778 -720 0
-779 778 720 0
779 -778 720 0
779 778 -720 0
-780 717 -702 0
-780 -717 702 0
780 717 702 0
780 -717 -702 0
-781 34 0
-781 777 0
781 -34 -777 0
-782 780 0
-782 781 0
782 -780 -781 0
-783 -781 -780 0
-783 781 780 0
783 -781 780 0
783 781 -780 0
-784 715 -706 0
-784 -715 706 0
784 715 706 0
784 -715 -706 0
-785 35 0
-785 777 0
785 -35 -777 0
-786 784 0
-786 785 0
786 -784 -785 0
-787 -785 -784 0
-787 785 784 0
787 -785 784 0
787 785 -784 0
-788 -713 -710 0
-788 713 710 0
788 -713 710 0
788 713 -710 0
-789 36 0
-789 777 0
789 -36 -777 0
-790 788 0
-790 789 0
790 -788 -789 0
-791 787 0
-791 790 0
791 -787 -790 0
-792 -786 0
-792 -791 0
792 786 791 0
-793 783 0
-793 -792 0
793 -783 792 0
-794 -782 0
-794 -793 0
794 782 793 0
-795 794 -779 0
-795 -794 779 0
795 794 779 0
795 -794 -779 0
-796 12 0
-796 29 0
796 -12 -29 0
-797 13 0
-797 31 0
797 -13 -31 0
-798 796 0
-798 797 0
798 -796 -797 0
-799 -797 -796 0
-799 797 796 0
799 -797 796 0
799 797 -796 0
-800 -723 0
-800 -726 0
800 723 726 0
-801 799 0
-801 -800 0
801 -799 800 0
-802 800 -799 0
-802 -800 799 0
802 800 799 0
802 -800 -799 0
-803 14 0
-803 38 0
803 -14 -38 0
-804 802 0
-804 803 0
804 -802 -803 0
-805 -803 -802 0
-805 803 802 0
805 -803 802 0
805 803 -802 0
-806 -729 0
-806 -732 0
806 729 732 0
-807 805 0
-807 -806 0
807 -805 806 0
-808 806 -805 0
-808 -806 805 0
808 806 805 0
808 -806 -805 0
-809 15 0
-809 40 0
809 -15 -40 0
-810 808 0
-810 809 0
810 -808 -809 0
-811 -809 -808 0
-811 809 808 0
811 -809 808 0
811 809 -808 0
-812 -735 0
-812 -738 0
812 735 738 0
-813 811 0
-813 -812 0
813 -811 812 0
-814 812 -811 0
-814 -812 811 0
814 812 811 0
814 -812 -811 0
-815 16 0
-815 42 0
815 -16 -42 0
-816 814 0
-816 815 0
816 -814 -815 0
-817 -815 -814 0
-817 815 814 0
817 -815 814 0
817 815 -814 0
-818 -741 0
-818 -744 0
818 741 744 0
-819 817 0
-819 -818 0
819 -817 818 0
-820 818 -817 0
-820 -818 817 0
820 818 817 0
820 -818 -817 0
-821 17 0
-821 27 0
821 -17 -27 0
-822 820 0
-822 821 0
822 -820 -821 0
-823 -821 -820 0
-823 821 820 0
823 -821 820 0
823 821 -820 0
-824 -747 0
-824 -750 0
824 747 750 0
-825 823 0
-825 -824 0
825 -823 824 0
-826 824 -823 0
-826 -824 823 0
826 824 823 0
826 -824 -823 0
-827 18 0
-827 26 0
827 -18 -26 0
-828 826 0
-828 827 0
828 -826 -827 0
-829 -827 -826 0
-829 827 826 0
829 -827 826 0
829 827 -826 0
-830 -753 0
-830 -756 0
830 753 756 0
-831 829 0
-831 -830 0
831 -829 830 0
-832 830 -829 0
-832 -830 829 0
832 830 829 0
832 -830 -829 0
-833 25 0
-833 41 0
833 -25 -41 0
-834 832 0
-834 833 0
834 -832 -833 0
-835 -833 -832 0
-835 833 832 0
835 -833 832 0
835 833 -832 0
-836 -759 0
-836 -762 0
836 759 762 0
-837 835 0
-837 -836 0
837 -835 836 0
-838 836 -835 0
-838 -836 835 0
838 836 835 0
838 -836 -835 0
-839 24 0
-839 39 0
839 -24 -39 0
-840 838 0
-840 839 0
840 -838 -839 0
-841 -839 -838 0
-841 839 838 0
841 -839 838 0
841 839 -838 0
-842 -765 0
-842 -768 0
842 765 768 0
-843 841 0
-843 -842 0
843 -841 842 0
-844 842 -841 0
-844 -842 841 0
844 842 841 0
844 -842 -841 0
-845 23 0
-845 37 0
845 -23 -37 0
-846 844 0
-846 845 0
846 -844 -845 0
-847 -845 -844 0
-847 845 844 0
847 -845 844 0
847 845 -844 0
-848 -771 0
-848 -773 0
848 771 773 0
-849 847 0
-849 -848 0
849 -847 848 0
-850 848 -847 0
-850 -848 847 0
850 848 847 0
850 -848 -847 0
-851 22 0
-851 30 0
851 -22 -30 0
-852 850 0
-852 851 0
852 -850 -851 0
-853 -851 -850 0
-853 851 850 0
853 -851 850 0
853 851 -850 0
-854 776 0
-854 853 0
854 -776 -853 0
-855 -853 -776 0
-855 853 776 0
855 -853 776 0
855 853 -776 0
-856 21 0
-856 28 0
856 -21 -28 0
-857 855 0
-857 856 0
857 -855 -856 0
-858 -856 -855 0
-858 856 855 0
858 -856 855 0
858 856 -855 0
-859 34 0
-859 858 0
859 -34 -858 0
-860 -859 -795 0
-860 859 795 0
860 -859 795 0
860 859 -795 0
-861 792 -783 0
-861 -792 783 0
861 792 783 0
861 -792 -783 0
-862 35 0
-862 858 0
862 -35 -858 0
-863 861 0
-863 862 0
863 -861 -862 0
-864 -862 -861 0
-864 862 861 0
864 -862 861 0
864 862 -861 0
-865 -790 -787 0
-865 790 787 0
865 -790 787 0
865 790 -787 0
-866 36 0
-866 858 0
866 -36 -858 0
-867 865 0
-867 866 0
867 -865 -866 0
-868 864 0
-868 867 0
868 -864 -867 0
-869 -863 0
-869 -868 0
869 863 868 0
-870 869 -860 0
-870 -869 860 0
870 869 860 0
870 -869 -860 0
-871 11 0
-871 29 0
871 -11 -29 0
-872 12 0
-872 31 0
872 -12 -31 0
-873 871 0
-873 872 0
873 -871 -872 0
-874 -872 -871 0
-874 872 871 0
874 -872 871 0
874 872 -871 0
-875 -798 0
-875 -801 0
875 798 801 0
-876 874 0
-876 -875 0
876 -874 875 0
-877 875 -874 0
-877 -875 874 0
877 875 874 0
877 -875 -874 0
-878 13 0
-878 38 0
878 -13 -38 0
-879 877 0
-879 878 0
879 -877 -878 0
-880 -878 -877 0
-880 878 877 0
880 -878 877 0
880 878 -877 0
-881 -804 0
-881 -807 0
881 804 807 0
-882 880 0
-882 -881 0
882 -880 881 0
-883 881 -880 0
-883 -881 880 0
883 881 880 0
883 -881 -880 0
-884 14 0
-884 40 0
884 -14 -40 0
-885 883 0
-885 884 0
885 -883 -884 0
-886 -884 -883 0
-886 884 883 0
886 -884 883 0
886 884 -883 0
-887 -810 0
-887 -813 0
887 810 813 0
-888 886 0
-888 -887 0
888 -886 887 0
-889 887 -886 0
-889 -887 886 0
889 887 886 0
889 -887 -886 0
-890 15 0
-890 42 0
890 -15 -42 0
-891 889 0
-891 890 0
891 -889 -890 0
-892 -890 -889 0
-892 890 889 0
892 -890 889 0
892 890 -889 0
-893 -816 0
-893 -819 0
893 816 819 0
-894 892 0
-894 -893 0
894 -892 893 0
-895 893 -892 0
-895 -893 892 0
895 893 892 0
895 -893 -892 0
-896 16 0
-896 27 0
896 -16 -27 0
-897 895 0
-897 896 0
897 -895 -896 0
-898 -896 -895 0
-898 896 895 0
898 -896 895 0
898 896 -895 0
-899 -822 0
-899 -825 0
899 822 825 0
-900 898 0
-900 -899 0
900 -898 899 0
-901 899 -898 0
-901 -899 898 0
901 899 898 0
901 -899 -898 0
-902 17 0
-902 26 0
902 -17 -26 0
-903 901 0
-903 902 0
903 -901 -902 0
-904 -902 -901 0
-904 902 901 0
904 -902 901 0
904 902 -901 0
-905 -828 0
-905 -831 0
905 828 831 0
-906 904 0
-906 -905 0
906 -904 905 0
-907 905 -904 0
-907 -905 904 0
907 905 904 0
907 -905 -904 0
-908 18 0
-908 25 0
908 -18 -25 0
-909 907 0
-909 908 0
909 -907 -908 0
-910 -908 -907 0
-910 908 907 0
910 -908 907 0
910 908 -907 0
-911 -834 0
-911 -837 0
911 834 837 0
-912 910 0
-912 -911 0
912 -910 911 0
-913 911 -910 0
-913 -911 910 0
913 911 910 0
913 -911 -910 0
-914 24 0
-914 41 0
914 -24 -41 0
-915 913 0
-915 914 0
915 -913 -914 0
-916 -914 -913 0
-916 914 913 0
916 -914 913 0
916 914 -913 0
-917 -840 0
-917 -843 0
917 840 843 0
-918 916 0
-918 -917 0
918 -916 917 0
-919 917 -916 0
-919 -917 916 0
919 917 916 0
919 -917 -916 0
-920 23 0
-920 39 0
920 -23 -39 0
-921 919 0
-921 920 0
921 -919 -920 0
-922 -920 -919 0
-922 920 919 0
922 -920 919 0
922 920 -919 0
-923 -846 0
-923 -849 0
923 846 849 0
-924 922 0
-924 -923 0
924 -922 923 0
-925 923 -922 0
-925 -923 922 0
925 923 922 0
925 -923 -922 0
-926 22 0
-926 37 0
926 -22 -37 0
-927 925 0
-927 926 0
927 -925 -926 0
-928 -926 -925 0
-928 926 925 0
928 -926 925 0
928 926 -925 0
-929 -852 0
-929 -854 0
929 852 854 0
-930 928 0
-930 -929 0
930 -928 929 0
-931 929 -928 0
-931 -929 928 0
931 929 928 0
931 -929 -928 0
-932 21 0
-932 30 0
932 -21 -30 0
-933 931 0
-933 932 0
933 -931 -932 0
-934 -932 -931 0
-934 932 931 0
934 -932 931 0
934 932 -931 0
-935 857 0
-935 934 0
935 -857 -934 0
-936 -934 -857 0
-936 934 857 0
936 -934 857 0
936 934 -857 0
-937 20 0
-937 28 0
937 -20 -28 0
-938 936 0
-938 937 0
938 -936 -937 0
-939 -937 -936 0
-939 937 936 0
939 -937 936 0
939 937 -936 0
-940 35 0
-940 939 0
940 -35 -939 0
-941 -940 -870 0
-941 940 870 0
941 -940 870 0
941 940 -870 0
-942 -867 -864 0
-942 867 864 0
942 -867 864 0
942 867 -864 0
-943 36 0
-943 939 0
943 -36 -939 0
-944 942 0
-944 943 0
944 -942 -943 0
-945 -944 -941 0
-945 944 941 0
945 -944 941 0
945 944 -941 0
-946 10 0
-946 29 0
946 -10 -29 0
-947 11 0
-947 31 0
947 -11 -31 0
-948 -947 -946 0
-948 947 946 0
948 -947 946 0
948 947 -946 0
-949 -873 0
-949 -876 0
949 873 876 0
-950 949 -948 0
-950 -949 948 0
950 949 948 0
950 -949 -948 0
-951 12 0
-951 38 0
951 -12 -38 0
-952 -951 -950 0
-952 951 950 0
952 -951 950 0
952 951 -950 0
-953 -879 0
-953 -882 0
953 879 882 0
-954 953 -952 0
-954 -953 952 0
954 953 952 0
954 -953 -952 0
-955 13 0
-955 40 0
955 -13 -40 0
-956 -955 -954 0
-956 955 954 0
956 -955 954 0
956 955 -954 0
-957 -885 0
-957 -888 0
957 885 888 0
-958 957 -956 0
-958 -957 956 0
958 957 956 0
958 -957 -956 0
-959 14 0
-959 42 0
959 -14 -42 0
-960 -959 -958 0
-960 959 958 0
960 -959 958 0
960 959 -958 0
-961 -891 0
-961 -894 0
961 891 894 0
-962 961 -960 0
-962 -961 960 0
962 961 960 0
962 -961 -960 0
-963 15 0
-963 27 0
963 -15 -27 0
-964 -963 -962 0
-964 963 962 0
964 -963 962 0
964 963 -962 0
-965 -897 0
-965 -900 0
965 897 900 0
-966 965 -964 0
-966 -965 964 0
966 965 964 0
966 -965 -964 0
-967 16 0
-967 26 0
967 -16 -26 0
-968 -967 -966 0
-968 967 966 0
968 -967 966 0
968 967 -966 0
-969 -903 0
-969 -906 0
969 903 906 0
-970 969 -968 0
-970 -969 968 0
970 969 968 0
970 -969 -968 0
-971 17 0
-971 25 0
971 -17 -25 0
-972 -971 -970 0
-972 971 970 0
972 -971 970 0
972 971 -970 0
-973 -909 0
-973 -912 0
973 909 912 0
-974 973 -972 0
-974 -973 972 0
974 973 972 0
974 -973 -972 0
-975 18 0
-975 24 0
975 -18 -24 0
-976 -975 -974 0
-976 975 974 0
976 -975 974 0
976 975 -974 0
-977 -915 0
-977 -918 0
977 915 918 0
-978 977 -976 0
-978 -977 976 0
978 977 976 0
978 -977 -976 0
-979 23 0
-979 41 0
979 -23 -41 0
-980 -979 -978 0
-980 979 978 0
980 -979 978 0
980 979 -978 0
-981 -921 0
-981 -924 0
981 921 924 0
-982 981 -980 0
-982 -981 980 0
982 981 980 0
982 -981 -980 0
-983 22 0
-983 39 0
983 -22 -39 0
-984 -983 -982 0
-984 983 982 0
984 -983 982 0
984 983 -982 0
-985 -927 0
-985 -930 0
985 927 930 0
-986 985 -984 0
-986 -985 984 0
986 985 984 0
986 -985 -984 0
-987 21 0
-987 37 0
987 -21 -37 0
-988 -987 -986 0
-988 987 986 0
988 -987 986 0
988 987 -986 0
-989 -933 0
-989 -935 0
989 933 935 0
-990 989 -988 0
-990 -989 988 0
990 989 988 0
990 -989 -988 0
-991 20 0
-991 30 0
991 -20 -30 0
-992 -991 -990 0
-992 991 990 0
992 -991 990 0
992 991 -990 0
-993 -992 -938 0
-993 992 938 0
993 -992 938 0
993 992 -938 0
-994 19 0
-994 28 0
994 -19 -28 0
-995 -994 -993 0
-995 994 993 0
995 -994 993 0
995 994 -993 0
-996 36 0
-996 995 0
996 -36 -995 0
-997 -996 -945 0
-997 996 945 0
997 -996 945 0
997 996 -945 0
-998 1 0
-998 28 0
998 -1 -28 0
-999 2 0
-999 30 0
999 -2 -30 0
-1000 -999 -998 0
-1000 999 998 0
1000 -999 998 0
1000 999 -998 0
-1001 2 0
-1001 28 0
1001 -2 -28 0
-1002 3 0
-1002 30 0
1002 -3 -30 0
-1003 1001 0
-1003 1002 0
1003 -1001 -1002 0
-1004 -1002 -1001 0
-1004 1002 1001 0
1004 -1002 1001 0
1004 1002 -1001 0
-1005 3 0
-1005 28 0
1005 -3 -28 0
-1006 4 0
-1006 30 0
1006 -4 -30 0
-1007 1005 0
-1007 1006 0
1007 -1005 -1006 0
-1008 -1006 -1005 0
-1008 1006 1005 0
1008 -1006 1005 0
1008 1006 -1005 0
-1009 4 0
-1009 28 0
1009 -4 -28 0
-1010 5 0
-1010 30 0
1010 -5 -30 0
-1011 1009 0
-1011 1010 0
1011 -1009 -1010 0
-1012 -1010 -1009 0
-1012 1010 1009 0
1012 -1010 1009 0
1012 1010 -1009 0
-1013 5 0
-1013 28 0
1013 -5 -28 0
-1014 6 0
-1014 30 0
1014 -6 -30 0
-1015 1013 0
-1015 1014 0
1015 -1013 -1014 0
-1016 -1014 -1013 0
-1016 1014 1013 0
1016 -1014 1013 0
1016 1014 -1013 0
-1017 6 0
-1017 28 0
1017 -6 -28 0
-1018 7 0
-1018 30 0
1018 -7 -30 0
-1019 1017 0
-1019 1018 0
1019 -1017 -1018 0
-1020 -1018 -1017 0
-1020 1018 1017 0
1020 -1018 1017 0
1020 1018 -1017 0
-1021 7 0
-1021 28 0
1021 -7 -28 0
-1022 8 0
-1022 30 0
1022 -8 -30 0
-1023 1021 0
-1023 1022 0
1023 -1021 -1022 0
-1024 -1022 -1021 0
-1024 1022 1021 0
1024 -1022 1021 0
1024 1022 -1021 0
-1025 8 0
-1025 28 0
1025 -8 -28 0
-1026 9 0
-1026 30 0
1026 -9 -30 0
-1027 1025 0
-1027 1026 0
1027 -1025 -1026 0
-1028 -1026 -1025 0
-1028 1026 1025 0
1028 -1026 1025 0
1028 1026 -1025 0
-1029 9 0
-1029 28 0
1029 -9 -28 0
-1030 30 0
-1030 32 0
1030 -30 -32 0
-1031 1029 0
-1031 1030 0
1031 -1029 -1030 0
-1032 -1030 -1029 0
-1032 1030 1029 0
1032 -1030 1029 0
1032 1030 -1029 0
-1033 28 0
-1033 32 0
1033 -28 -32 0
-1034 30 0
-1034 33 0
1034 -30 -33 0
-1035 1033 0
-1035 1034 0
1035 -1033 -1034 0
-1036 -1034 -1033 0
-1036 1034 1033 0
1036 -1034 1033 0
1036 1034 -1033 0
-1037 28 0
-1037 33 0
1037 -28 -33 0
-1038 30 0
-1038 34 0
1038 -30 -34 0
-1039 1037 0
-1039 1038 0
1039 -1037 -1038 0
-1040 -1038 -1037 0
-1040 1038 1037 0
1040 -1038 1037 0
1040 1038 -1037 0
-1041 28 0
-1041 34 0
1041 -28 -34 0
-1042 30 0
-1042 35 0
1042 -30 -35 0
-1043 1041 0
-1043 1042 0
1043 -1041 -1042 0
-1044 -1042 -1041 0
-1044 1042 1041 0
1044 -1042 1041 0
1044 1042 -1041 0
-1045 28 0
-1045 35 0
1045 -28 -35 0
-1046 30 0
-1046 36 0
1046 -30 -36 0
-1047 1045 0
-1047 1046 0
1047 -1045 -1046 0
-1048 1044 0
-1048 1047 0
1048 -1044 -1047 0
-1049 -1043 0
-1049 -1048 0
1049 1043 1048 0
-1050 1040 0
-1050 -1049 0
1050 -1040 1049 0
-1051 -1039 0
-1051 -1050 0
1051 1039 1050 0
-1052 1036 0
-1052 -1051 0
1052 -1036 1051 0
-1053 -1035 0
-1053 -1052 0
1053 1035 1052 0
-1054 1032 0
-1054 -1053 0
1054 -1032 1053 0
-1055 -1031 0
-1055 -1054 0
1055 1031 1054 0
-1056 1028 0
-1056 -1055 0
1056 -1028 1055 0
-1057 -1027 0
-1057 -1056 0
1057 1027 1056 0
-1058 1024 0
-1058 -1057 0
1058 -1024 1057 0
-1059 -1023 0
-1059 -1058 0
1059 1023 1058 0
-1060 1020 0
-1060 -1059 0
1060 -1020 1059 0
-1061 -1019 0
-1061 -1060 0
1061 1019 1060 0
-1062 1016 0
-1062 -1061 0
1062 -1016 1061 0
-1063 -1015 0
-1063 -1062 0
1063 1015 1062 0
-1064 1012 0
-1064 -1063 0
1064 -1012 1063 0
-1065 -1011 0
-1065 -1064 0
1065 1011 1064 0
-1066 1008 0
-1066 -1065 0
1066 -1008 1065 0
-1067 -1007 0
-1067 -1066 0
1067 1007 1066 0
-1068 1004 0
-1068 -1067 0
1068 -1004 1067 0
-1069 -1003 0
-1069 -1068 0
1069 1003 1068 0
-1070 1069 -1000 0
-1070 -1069 1000 0
1070 1069 1000 0
1070 -1069 -1000 0
-1071 3 0
-1071 37 0
1071 -3 -37 0
-1072 -1071 -1070 0
-1072 1071 1070 0
1072 -1071 1070 0
1072 1071 -1070 0
-1073 1067 -1004 0
-1073 -1067 1004 0
1073 1067 1004 0
1073 -1067 -1004 0
-1074 4 0
-1074 37 0
1074 -4 -37 0
-1075 1073 0
-1075 1074 0
1075 -1073 -1074 0
-1076 -1074 -1073 0
-1076 1074 1073 0
1076 -1074 1073 0
1076 1074 -1073 0
-1077 1065 -1008 0
-1077 -1065 1008 0
1077 1065 1008 0
1077 -1065 -1008 0
-1078 5 0
-1078 37 0
1078 -5 -37 0
-1079 1077 0
-1079 1078 0
1079 -1077 -1078 0
-1080 -1078 -1077 0
-1080 1078 1077 0
1080 -1078 1077 0
1080 1078 -1077 0
-1081 1063 -1012 0
-1081 -1063 1012 0
1081 1063 1012 0
1081 -1063 -1012 0
-1082 6 0
-1082 37 0
1082 -6 -37 0
-1083 1081 0
-1083 1082 0
1083 -1081 -1082 0
-1084 -1082 -1081 0
-1084 1082 1081 0
1084 -1082 1081 0
1084 1082 -1081 0
-1085 1061 -1016 0
-1085 -1061 1016 0
1085 1061 1016 0
1085 -1061 -1016 0
-1086 7 0
-1086 37 0
1086 -7 -37 0
-1087 1085 0
-1087 1086 0
1087 -1085 -1086 0
-1088 -1086 -1085 0
-1088 1086 1085 0
1088 -1086 1085 0
1088 1086 -1085 0
-1089 1059 -1020 0
-1089 -1059 1020 0
1089 1059 1020 0
1089 -1059 -1020 0
-1090 8 0
-1090 37 0
1090 -8 -37 0
-1091 1089 0
-1091 1090 0
1091 -1089 -1090 0
-1092 -1090 -1089 0
-1092 1090 1089 0
1092 -1090 1089 0
1092 1090 -1089 0
-1093 1057 -1024 0
-1093 -1057 1024 0
1093 1057 1024 0
1093 -1057 -1024 0
-1094 9 0
-1094 37 0
1094 -9 -37 0
-1095 1093 0
-1095 1094 0
1095 -1093 -1094 0
-1096 -1094 -1093 0
-1096 1094 1093 0
1096 -1094 1093 0
1096 1094 -1093 0
-1097 1055 -1028 0
-1097 -1055 1028 0
1097 1055 1028 0
1097 -1055 -1028 0
-1098 32 0
-1098 37 0
1098 -32 -37 0
-1099 1097 0
-1099 1098 0
1099 -1097 -1098 0
-1100 -1098 -1097 0
-1100 1098 1097 0
1100 -1098 1097 0
1100 1098 -1097 0
-1101 1053 -1032 0
-1101 -1053 1032 0
1101 1053 1032 0
1101 -1053 -1032 0
-1102 33 0
-1102 37 0
1102 -33 -37 0
-1103 1101 0
-1103 1102 0
1103 -1101 -1102 0
-1104 -1102 -1101 0
-1104 1102 1101 0
1104 -1102 1101 0
1104 1102 -1101 0
-1105 1051 -1036 0
-1105 -1051 1036 0
1105 1051 1036 0
1105 -1051 -1036 0
-1106 34 0
-1106 37 0
1106 -34 -37 0
-1107 1105 0
-1107 1106 0
1107 -1105 -1106 0
-1108 -1106 -1105 0
-1108 1106 1105 0
1108 -1106 1105 0
1108 1106 -1105 0
-1109 1049 -1040 0
-1109 -1049 1040 0
1109 1049 1040 0
1109 -1049 -1040 0
-1110 35 0
-1110 37 0
1110 -35 -37 0
-1111 1109 0
-1111 1110 0
1111 -1109 -1110 0
-1112 -1110 -1109 0
-1112 1110 1109 0
1112 -1110 1109 0
1112 1110 -1109 0
-1113 -1047 -1044 0
-1113 1047 1044 0
1113 -1047 1044 0
1113 1047 -1044 0
-1114 36 0
-1114 37 0
1114 -36 -37 0
-1115 1113 0
-1115 1114 0
1115 -1113 -1114 0
-1116 1112 0
-1116 1115 0
1116 -1112 -1115 0
-1117 -1111 0
-1117 -1116 0
1117 1111 1116 0
-1118 1108 0
-1118 -1117 0
1118 -1108 1117 0
-1119 -1107 0
-1119 -1118 0
1119 1107 1118 0
-1120 1104 0
-1120 -1119 0
1120 -1104 1119 0
-1121 -1103 0
-1121 -1120 0
1121 1103 1120 0
-1122 1100 0
-1122 -1121 0
1122 -1100 1121 0
-1123 -1099 0
-1123 -1122 0
1123 1099 1122 0
-1124 1096 0
-1124 -1123 0
1124 -1096 1123 0
-1125 -1095 0
-1125 -1124 0
1125 1095 1124 0
-1126 1092 0
-1126 -1125 0
1126 -1092 1125 0
-1127 -1091 0
-1127 -1126 0
1127 1091 1126 0
-1128 1088 0
-1128 -1127 0
1128 -1088 1127 0
-1129 -1087 0
-1129 -1128 0
1129 1087 1128 0
-1130 1084 0
-1130 -1129 0
1130 -1084 1129 0
-1131 -1083 0
-1131 -1130 0
1131 1083 1130 0
-1132 1080 0
-1132 -1131 0
1132 -1080 1131 0
-1133 -1079 0
-1133 -1132 0
1133 1079 1132 0
-1134 1076 0
-1134 -1133 0
1134 -1076 1133 0
-1135 -1075 0
-1135 -1134 0
1135 1075 1134 0
-1136 1135 -1072 0
-1136 -1135 1072 0
1136 1135 1072 0
1136 -1135 -1072 0
-1137 4 0
-1137 39 0
1137 -4 -39 0
-1138 -1137 -1136 0
-1138 1137 1136 0
1138 -1137 1136 0
1138 1137 -1136 0
-1139 1133 -1076 0
-1139 -1133 1076 0
1139 1133 1076 0
1139 -1133 -1076 0
-1140 5 0
-1140 39 0
1140 -5 -39 0
-1141 1139 0
-1141 1140 0
1141 -1139 -1140 0
-1142 -1140 -1139 0
-1142 1140 1139 0
1142 -1140 1139 0
1142 1140 -1139 0
-1143 1131 -1080 0
-1143 -1131 1080 0
1143 1131 1080 0
1143 -1131 -1080 0
-1144 6 0
-1144 39 0
1144 -6 -39 0
-1145 1143 0
-1145 1144 0
1145 -1143 -1144 0
-1146 -1144 -1143 0
-1146 1144 1143 0
1146 -1144 1143 0
1146 1144 -1143 0
-1147 1129 -1084 0
-1147 -1129 1084 0
1147 1129 1084 0
1147 -1129 -1084 0
-1148 7 0
-1148 39 0
1148 -7 -39 0
-1149 1147 0
-1149 1148 0
1149 -1147 -1148 0
-1150 -1148 -1147 0
-1150 1148 1147 0
1150 -1148 1147 0
1150 1148 -1147 0
-1151 1127 -1088 0
-1151 -1127 1088 0
1151 1127 1088 0
1151 -1127 -1088 0
-1152 8 0
-1152 39 0
1152 -8 -39 0
-1153 1151 0
-1153 1152 0
1153 -1151 -1152 0
-1154 -1152 -1151 0
-1154 1152 1151 0
1154 -1152 1151 0
1154 1152 -1151 0
-1155 1125 -1092 0
-1155 -1125 1092 0
1155 1125 1092 0
1155 -1125 -1092 0
-1156 9 0
-1156 39 0
1156 -9 -39 0
-1157 1155 0
-1157 1156 0
1157 -1155 -1156 0
-1158 -1156 -1155 0
-1158 1156 1155 0
1158 -1156 1155 0
1158 1156 -1155 0
-1159 1123 -1096 0
-1159 -1123 1096 0
1159 1123 1096 0
1159 -1123 -1096 0
-1160 32 0
-1160 39 0
1160 -32 -39 0
-1161 1159 0
-1161 1160 0
1161 -1159 -1160 0
-1162 -1160 -1159 0
-1162 1160 1159 0
1162 -1160 1159 0
1162 1160 -1159 0
-1163 1121 -1100 0
-1163 -1121 1100 0
1163 1121 1100 0
1163 -1121 -1100 0
-1164 33 0
-1164 39 0
1164 -33 -39 0
-1165 1163 0
-1165 1164 0
1165 -1163 -1164 0
-1166 -1164 -1163 0
-1166 1164 1163 0
1166 -1164 1163 0
1166 1164 -1163 0
-1167 1119 -1104 0
-1167 -1119 1104 0
1167 1119 1104 0
1167 -1119 -1104 0
-1168 34 0
-1168 39 0
1168 -34 -39 0
-1169 1167 0
-1169 1168 0
1169 -1167 -1168 0
-1170 -1168 -1167 0
-1170 1168 1167 0
1170 -1168 1167 0
1170 1168 -1167 0
-1171 1117 -1108 0
-1171 -1117 1108 0
1171 1117 1108 0
1171 -1117 -1108 0
-1172 35 0
-1172 39 0
1172 -35 -39 0
-1173 1171 0
-1173 1172 0
1173 -1171 -1172 0
-1174 -1172 -1171 0
-1174 1172 1171 0
1174 -1172 1171 0
1174 1172 -1171 0
-1175 -1115 -1112 0
-1175 1115 1112 0
1175 -1115 1112 0
1175 1115 -1112 0
-1176 36 0
-1176 39 0
1176 -36 -39 0
-1177 1175 0
-1177 1176 0
1177 -1175 -1176 0
-1178 1174 0
-1178 1177 0
1178 -1174 -1177 0
-1179 -1173 0
-1179 -1178 0
1179 1173 1178 0
-1180 1170 0
-1180 -1179 0
1180 -1170 1179 0
-1181 -1169 0
-1181 -1180 0
1181 1169 1180 0
-1182 1166 0
-1182 -1181 0
1182 -1166 1181 0
-1183 -1165 0
-1183 -1182 0
1183 1165 1182 0
-1184 1162 0
-1184 -1183 0
1184 -1162 1183 0
-1185 -1161 0
-1185 -1184 0
1185 1161 1184 0
-1186 1158 0
-1186 -1185 0
1186 -1158 1185 0
-1187 -1157 0
-1187 -1186 0
1187 1157 1186 0
-1188 1154 0
-1188 -1187 0
1188 -1154 1187 0
-1189 -1153 0
-1189 -1188 0
1189 1153 1188 0
-1190 1150 0
-1190 -1189 0
1190 -1150 1189 0
-1191 -1149 0
-1191 -1190 0
1191 1149 1190 0
-1192 1146 0
-1192 -1191 0
1192 -1146 1191 0
-1193 -1145 0
-1193 -1192 0
1193 1145 1192 0
-1194 1142 0
-1194 -1193 0
1194 -1142 1193 0
-1195 -1141 0
-1195 -1194 0
1195 1141 1194 0
-1196 1195 -1138 0
-1196 -1195 1138 0
1196 1195 1138 0
1196 -1195 -1138 0
-1197 5 0
-1197 41 0
1197 -5 -41 0
-1198 -1197 -1196 0
-1198 1197 1196 0
1198 -1197 1196 0
1198 1197 -1196 0
-1199 1193 -1142 0
-1199 -1193 1142 0
1199 1193 1142 0
1199 -1193 -1142 0
-1200 6 0
-1200 41 0
1200 -6 -41 0
-1201 1199 0
-1201 1200 0
1201 -1199 -1200 0
-1202 -1200 -1199 0
-1202 1200 1199 0
1202 -1200 1199 0
1202 1200 -1199 0
-1203 1191 -1146 0
-1203 -1191 1146 0
1203 1191 1146 0
1203 -1191 -1146 0
-1204 7 0
-1204 41 0
1204 -7 -41 0
-1205 1203 0
-1205 1204 0
1205 -1203 -1204 0
-1206 -1204 -1203 0
-1206 1204 1203 0
1206 -1204 1203 0
1206 1204 -1203 0
-1207 1189 -1150 0
-1207 -1189 1150 0
1207 1189 1150 0
1207 -1189 -1150 0
-1208 8 0
-1208 41 0
1208 -8 -41 0
-1209 1207 0
-1209 1208 0
1209 -1207 -1208 0
-1210 -1208 -1207 0
-1210 1208 1207 0
1210 -1208 1207 0
1210 1208 -1207 0
-1211 1187 -1154 0
-1211 -1187 1154 0
1211 1187 1154 0
1211 -1187 -1154 0
-1212 9 0
-1212 41 0
1212 -9 -41 0
-1213 1211 0
-1213 1212 0
1213 -1211 -1212 0
-1214 -1212 -1211 0
-1214 1212 1211 0
1214 -1212 1211 0
1214 1212 -1211 0
-1215 1185 -1158 0
-1215 -1185 1158 0
1215 1185 1158 0
1215 -1185 -1158 0
-1216 32 0
-1216 41 0
1216 -32 -41 0
-1217 1215 0
-1217 1216 0
1217 -1215 -1216 0
-1218 -1216 -1215 0
-1218 1216 1215 0
1218 -1216 1215 0
1218 1216 -1215 0
-1219 1183 -1162 0
-1219 -1183 1162 0
1219 1183 1162 0
1219 -1183 -1162 0
-1220 33 0
-1220 41 0
1220 -33 -41 0
-1221 1219 0
-1221 1220 0
1221 -1219 -1220 0
-1222 -1220 -1219 0
-1222 1220 1219 0
1222 -1220 1219 0
1222 1220 -1219 0
-1223 1181 -1166 0
-1223 -1181 1166 0
1223 1181 1166 0
1223 -1181 -1166 0
-1224 34 0
-1224 41 0
1224 -34 -41 0
-1225 1223 0
-1225 1224 0
1225 -1223 -1224 0
-1226 -1224 -1223 0
-1226 1224 1223 0
1226 -1224 1223 0
1226 1224 -1223 0
-1227 1179 -1170 0
-1227 -1179 1170 0
1227 1179 1170 0
1227 -1179 -1170 0
-1228 35 0
-1228 41 0
1228 -35 -41 0
-1229 1227 0
-1229 1228 0
1229 -1227 -1228 0
-1230 -1228 -1227 0
-1230 1228 1227 0
1230 -1228 1227 0
1230 1228 -1227 0
-1231 -1177 -1174 0
-1231 1177 1174 0
1231 -1177 1174 0
1231 1177 -1174 0
-1232 36 0
-1232 41 0
1232 -36 -41 0
-1233 1231 0
-1233 1232 0
1233 -1231 -1232 0
-1234 1230 0
-1234 1233 0
1234 -1230 -1233 0
-1235 -1229 0
-1235 -1234 0
1235 1229 1234 0
-1236 1226 0
-1236 -1235 0
1236 -1226 1235 0
-1237 -1225 0
-1237 -1236 0
1237 1225 1236 0
-1238 1222 0
-1238 -1237 0
1238 -1222 1237 0
-1239 -1221 0
-1239 -1238 0
1239 1221 1238 0
-1240 1218 0
-1240 -1239 0
1240 -1218 1239 0
-1241 -1217 0
-1241 -1240 0
1241 1217 1240 0
-1242 1214 0
-1242 -1241 0
1242 -1214 1241 0
-1243 -1213 0
-1243 -1242 0
1243 1213 1242 0
-1244 1210 0
-1244 -1243 0
1244 -1210 1243 0
-1245 -1209 0
-1245 -1244 0
1245 1209 1244 0
-1246 1206 0
-1246 -1245 0
1246 -1206 1245 0
-1247 -1205 0
-1247 -1246 0
1247 1205 1246 0
-1248 1202 0
-1248 -1247 0
1248 -1202 1247 0
-1249 -1201 0
-1249 -1248 0
1249 1201 1248 0
-1250 1249 -1198 0
-1250 -1249 1198 0
1250 1249 1198 0
1250 -1249 -1198 0
-1251 6 0
-1251 18 0
1251 -6 -18 0
-1252 -1251 -1250 0
-1252 1251 1250 0
1252 -1251 1250 0
1252 1251 -1250 0
-1253 1247 -1202 0
-1253 -1247 1202 0
1253 1247 1202 0
1253 -1247 -1202 0
-1254 7 0
-1254 18 0
1254 -7 -18 0
-1255 1253 0
-1255 1254 0
1255 -1253 -1254 0
-1256 -1254 -1253 0
-1256 1254 1253 0
1256 -1254 1253 0
1256 1254 -1253 0
-1257 1245 -1206 0
-1257 -1245 1206 0
1257 1245 1206 0
1257 -1245 -1206 0
-1258 8 0
-1258 18 0
1258 -8 -18 0
-1259 1257 0
-1259 1258 0
1259 -1257 -1258 0
-1260 -1258 -1257 0
-1260 1258 1257 0
1260 -1258 1257 0
1260 1258 -1257 0
-1261 1243 -1210 0
-1261 -1243 1210 0
1261 1243 1210 0
1261 -1243 -1210 0
-1262 9 0
-1262 18 0
1262 -9 -18 0
-1263 1261 0
-1263 1262 0
1263 -1261 -1262 0
-1264 -1262 -1261 0
-1264 1262 1261 0
1264 -1262 1261 0
1264 1262 -1261 0
-1265 1241 -1214 0
-1265 -1241 1214 0
1265 1241 1214 0
1265 -1241 -1214 0
-1266 18 0
-1266 32 0
1266 -18 -32 0
-1267 1265 0
-1267 1266 0
1267 -1265 -1266 0
-1268 -1266 -1265 0
-1268 1266 1265 0
1268 -1266 1265 0
1268 1266 -1265 0
-1269 1239 -1218 0
-1269 -1239 1218 0
1269 1239 1218 0
1269 -1239 -1218 0
-1270 18 0
-1270 33 0
1270 -18 -33 0
-1271 1269 0
-1271 1270 0
1271 -1269 -1270 0
-1272 -1270 -1269 0
-1272 1270 1269 0
1272 -1270 1269 0
1272 1270 -1269 0
-1273 1237 -1222 0
-1273 -1237 1222 0
1273 1237 1222 0
1273 -1237 -1222 0
-1274 18 0
-1274 34 0
1274 -18 -34 0
-1275 1273 0
-1275 1274 0
1275 -1273 -1274 0
-1276 -1274 -1273 0
-1276 1274 1273 0
1276 -1274 1273 0
1276 1274 -1273 0
-1277 1235 -1226 0
-1277 -1235 1226 0
1277 1235 1226 0
1277 -1235 -1226 0
-1278 18 0
-1278 35 0
1278 -18 -35 0
-1279 1277 0
-1279 1278 0
1279 -1277 -1278 0
-1280 -1278 -1277 0
-1280 1278 1277 0
1280 -1278 1277 0
1280 1278 -1277 0
-1281 -1233 -1230 0
-1281 1233 1230 0
1281 -1233 1230 0
1281 1233 -1230 0
-1282 18 0
-1282 36 0
1282 -18 -36 0
-1283 1281 0
-1283 1282 0
1283 -1281 -1282 0
-1284 1280 0
-1284 1283 0
1284 -1280 -1283 0
-1285 -1279 0
-1285 -1284 0
1285 1279 1284 0
-1286 1276 0
-1286 -1285 0
1286 -1276 1285 0
-1287 -1275 0
-1287 -1286 0
1287 1275 1286 0
-1288 1272 0
-1288 -1287 0
1288 -1272 1287 0
-1289 -1271 0
-1289 -1288 0
1289 1271 1288 0
-1290 1268 0
-1290 -1289 0
1290 -1268 1289 0
-1291 -1267 0
-1291 -1290 0
1291 1267 1290 0
-1292 1264 0
-1292 -1291 0
1292 -1264 1291 0
-1293 -1263 0
-1293 -1292 0
1293 1263 1292 0
-1294 1260 0
-1294 -1293 0
1294 -1260 1293 0
-1295 -1259 0
-1295 -1294 0
1295 1259 1294 0
-1296 1256 0
-1296 -1295 0
1296 -1256 1295 0
-1297 -1255 0
-1297 -1296 0
1297 1255 1296 0
-1298 1297 -1252 0
-1298 -1297 1252 0
1298 1297 1252 0
1298 -1297 -1252 0
-1299 7 0
-1299 17 0
1299 -7 -17 0
-1300 -1299 -1298 0
-1300 1299 1298 0
1300 -1299 1298 0
1300 1299 -1298 0
-1301 1295 -1256 0
-1301 -1295 1256 0
1301 1295 1256 0
1301 -1295 -1256 0
-1302 8 0
-1302 17 0
1302 -8 -17 0
-1303 1301 0
-1303 1302 0
1303 -1301 -1302 0
-1304 -1302 -1301 0
-1304 1302 1301 0
1304 -1302 1301 0
1304 1302 -1301 0
-1305 1293 -1260 0
-1305 -1293 1260 0
1305 1293 1260 0
1305 -1293 -1260 0
-1306 9 0
-1306 17 0
1306 -9 -17 0
-1307 1305 0
-1307 1306 0
1307 -1305 -1306 0
-1308 -1306 -1305 0
-1308 1306 1305 0
1308 -1306 1305 0
1308 1306 -1305 0
-1309 1291 -1264 0
-1309 -1291 1264 0
1309 1291 1264 0
1309 -1291 -1264 0
-1310 17 0
-1310 32 0
1310 -17 -32 0
-1311 1309 0
-1311 1310 0
1311 -1309 -1310 0
-1312 -1310 -1309 0
-1312 1310 1309 0
1312 -1310 1309 0
1312 1310 -1309 0
-1313 1289 -1268 0
-1313 -1289 1268 0
1313 1289 1268 0
1313 -1289 -1268 0
-1314 17 0
-1314 33 0
1314 -17 -33 0
-1315 1313 0
-1315 1314 0
1315 -1313 -1314 0
-1316 -1314 -1313 0
-1316 1314 1313 0
1316 -1314 1313 0
1316 1314 -1313 0
-1317 1287 -1272 0
-1317 -1287 1272 0
1317 1287 1272 0
1317 -1287 -1272 0
-1318 17 0
-1318 34 0
1318 -17 -34 0
-1319 1317 0
-1319 1318 0
1319 -1317 -1318 0
-1320 -1318 -1317 0
-1320 1318 1317 0
1320 -1318 1317 0
1320 1318 -1317 0
-1321 1285 -1276 0
-1321 -1285 1276 0
1321 1285 1276 0
1321 -1285 -1276 0
-1322 17 0
-1322 35 0
1322 -17 -35 0
-1323 1321 0
-1323 1322 0
1323 -1321 -1322 0
-1324 -1322 -1321 0
-1324 1322 1321 0
1324 -1322 1321 0
1324 1322 -1321 0
-1325 -1283 -1280 0
-1325 1283 1280 0
1325 -1283 1280 0
1325 1283 -1280 0
-1326 17 0
-1326 36 0
1326 -17 -36 0
-1327 1325 0
-1327 1326 0
1327 -1325 -1326 0
-1328 1324 0
-1328 1327 0
1328 -1324 -1327 0
-1329 -1323 0
-1329 -1328 0
1329 1323 1328 0
-1330 1320 0
-1330 -1329 0
1330 -1320 1329 0
-1331 -1319 0
-1331 -1330 0
1331 1319 1330 0
-1332 1316 0
-1332 -1331 0
1332 -1316 1331 0
-1333 -1315 0
-1333 -1332 0
1333 1315 1332 0
-1334 1312 0
-1334 -1333 0
1334 -1312 1333 0
-1335 -1311 0
-1335 -1334 0
1335 1311 1334 0
-1336 1308 0
-1336 -1335 0
1336 -1308 1335 0
-1337 -1307 0
-1337 -1336 0
1337 1307 1336 0
-1338 1304 0
-1338 -1337 0
1338 -1304 1337 0
-1339 -1303 0
-1339 -1338 0
1339 1303 1338 0
-1340 1339 -1300 0
-1340 -1339 1300 0
1340 1339 1300 0
1340 -1339 -1300 0
-1341 8 0
-1341 16 0
1341 -8 -16 0
-1342 -1341 -1340 0
-1342 1341 1340 0
1342 -1341 1340 0
1342 1341 -1340 0
-1343 1337 -1304 0
-1343 -1337 1304 0
1343 1337 1304 0
1343 -1337 -1304 0
-1344 9 0
-1344 16 0
1344 -9 -16 0
-1345 1343 0
-1345 1344 0
1345 -1343 -1344 0
-1346 -1344 -1343 0
-1346 1344 1343 0
1346 -1344 1343 0
1346 1344 -1343 0
-1347 1335 -1308 0
-1347 -1335 1308 0
1347 1335 1308 0
1347 -1335 -1308 0
-1348 16 0
-1348 32 0
1348 -16 -32 0
-1349 1347 0
-1349 1348 0
1349 -1347 -1348 0
-1350 -1348 -1347 0
-1350 1348 1347 0
1350 -1348 1347 0
1350 1348 -1347 0
-1351 1333 -1312 0
-1351 -1333 1312 0
1351 1333 1312 0
1351 -1333 -1312 0
-1352 16 0
-1352 33 0
1352 -16 -33 0
-1353 1351 0
-1353 1352 0
1353 -1351 -1352 0
-1354 -1352 -1351 0
-1354 1352 1351 0
1354 -1352 1351 0
1354 1352 -1351 0
-1355 1331 -1316 0
-1355 -1331 1316 0
1355 1331 1316 0
1355 -1331 -1316 0
-1356 16 0
-1356 34 0
1356 -16 -34 0
-1357 1355 0
-1357 1356 0
1357 -1355 -1356 0
-1358 -1356 -1355 0
-1358 1356 1355 0
1358 -1356 1355 0
1358 1356 -1355 0
-1359 1329 -1320 0
-1359 -1329 1320 0
1359 1329 1320 0
1359 -1329 -1320 0
-1360 16 0
-1360 35 0
1360 -16 -35 0
-1361 1359 0
-1361 1360 0
1361 -1359 -1360 0
-1362 -1360 -1359 0
-1362 1360 1359 0
1362 -1360 1359 0
1362 1360 -1359 0
-1363 -1327 -1324 0
-1363 1327 1324 0
1363 -1327 1324 0
1363 1327 -1324 0
-1364 16 0
-1364 36 0
1364 -16 -36 0
-1365 1363 0
-1365 1364 0
1365 -1363 -1364 0
-1366 1362 0
-1366 1365 0
1366 -1362 -1365 0
-1367 -1361 0
-1367 -1366 0
1367 1361 1366 0
-1368 1358 0
-1368 -1367 0
1368 -1358 1367 0
-1369 -1357 0
-1369 -1368 0
1369 1357 1368 0
-1370 1354 0
-1370 -1369 0
1370 -1354 1369 0
-1371 -1353 0
-1371 -1370 0
1371 1353 1370 0
-1372 1350 0
-1372 -1371 0
1372 -1350 1371 0
-1373 -1349 0
-1373 -1372 0
1373 1349 1372 0
-1374 1346 0
-1374 -1373 0
1374 -1346 1373 0
-1375 -1345 0
-1375 -1374 0
1375 1345 1374 0
-1376 1375 -1342 0
-1376 -1375 1342 0
1376 1375 1342 0
1376 -1375 -1342 0
-1377 9 0
-1377 15 0
1377 -9 -15 0
-1378 -1377 -1376 0
-1378 1377 1376 0
1378 -1377 1376 0
1378 1377 -1376 0
-1379 1373 -1346 0
-1379 -1373 1346 0
1379 1373 1346 0
1379 -1373 -1346 0
-1380 15 0
-1380 32 0
1380 -15 -32 0
-1381 1379 0
-1381 1380 0
1381 -1379 -1380 0
-1382 -1380 -1379 0
-1382 1380 1379 0
1382 -1380 1379 0
1382 1380 -1379 0
-1383 1371 -1350 0
-1383 -1371 1350 0
1383 1371 1350 0
1383 -1371 -1350 0
-1384 15 0
-1384 33 0
1384 -15 -33 0
-1385 1383 0
-1385 1384 0
1385 -1383 -1384 0
-1386 -1384 -1383 0
-1386 1384 1383 0
1386 -1384 1383 0
1386 1384 -1383 0
-1387 1369 -1354 0
-1387 -1369 1354 0
1387 1369 1354 0
1387 -1369 -1354 0
-1388 15 0
-1388 34 0
1388 -15 -34 0
-1389 1387 0
-1389 1388 0
1389 -1387 -1388 0
-1390 -1388 -1387 0
-1390 1388 1387 0
1390 -1388 1387 0
1390 1388 -1387 0
-1391 1367 -1358 0
-1391 -1367 1358 0
1391 1367 1358 0
1391 -1367 -1358 0
-1392 15 0
-1392 35 0
1392 -15 -35 0
-1393 1391 0
-1393 1392 0
1393 -1391 -1392 0
-1394 -1392 -1391 0
-1394 1392 1391 0
1394 -1392 1391 0
1394 1392 -1391 0
-1395 -1365 -1362 0
-1395 1365 1362 0
1395 -1365 1362 0
1395 1365 -1362 0
-1396 15 0
-1396 36 0
1396 -15 -36 0
-1397 1395 0
-1397 1396 0
1397 -1395 -1396 0
-1398 1394 0
-1398 1397 0
1398 -1394 -1397 0
-1399 -1393 0
-1399 -1398 0
1399 1393 1398 0
-1400 1390 0
-1400 -1399 0
1400 -1390 1399 0
-1401 -1389 0
-1401 -1400 0
1401 1389 1400 0
-1402 1386 0
-1402 -1401 0
1402 -1386 1401 0
-1403 -1385 0
-1403 -1402 0
1403 1385 1402 0
-1404 1382 0
-1404 -1403 0
1404 -1382 1403 0
-1405 -1381 0
-1405 -1404 0
1405 1381 1404 0
-1406 1405 -1378 0
-1406 -1405 1378 0
1406 1405 1378 0
1406 -1405 -1378 0
-1407 14 0
-1407 32 0
1407 -14 -32 0
-1408 -1407 -1406 0
-1408 1407 1406 0
1408 -1407 1406 0
1408 1407 -1406 0
-1409 1403 -1382 0
-1409 -1403 1382 0
1409 1403 1382 0
1409 -1403 -1382 0
-1410 14 0
-1410 33 0
1410 -14 -33 0
-1411 1409 0
-1411 1410 0
1411 -1409 -1410 0
-1412 -1410 -1409 0
-1412 1410 1409 0
1412 -1410 1409 0
1412 1410 -1409 0
-1413 1401 -1386 0
-1413 -1401 1386 0
1413 1401 1386 0
1413 -1401 -1386 0
-1414 14 0
-1414 34 0
1414 -14 -34 0
-1415 1413 0
-1415 1414 0
1415 -1413 -1414 0
-1416 -1414 -1413 0
-1416 1414 1413 0
1416 -1414 1413 0
1416 1414 -1413 0
-1417 1399 -1390 0
-1417 -1399 1390 0
1417 1399 1390 0
1417 -1399 -1390 0
-1418 14 0
-1418 35 0
1418 -14 -35 0
-1419 1417 0
-1419 1418 0
1419 -1417 -1418 0
-1420 -1418 -1417 0
-1420 1418 1417 0
1420 -1418 1417 0
1420 1418 -1417 0
-1421 -1397 -1394 0
-1421 1397 1394 0
1421 -1397 1394 0
1421 1397 -1394 0
-1422 14 0
-1422 36 0
1422 -14 -36 0
-1423 1421 0
-1423 1422 0
1423 -1421 -1422 0
-1424 1420 0
-1424 1423 0
1424 -1420 -1423 0
-1425 -1419 0
-1425 -1424 0
1425 1419 1424 0
-1426 1416 0
-1426 -1425 0
1426 -1416 1425 0
-1427 -1415 0
-1427 -1426 0
1427 1415 1426 0
-1428 1412 0
-1428 -1427 0
1428 -1412 1427 0
-1429 -1411 0
-1429 -1428 0
1429 1411 1428 0
-1430 1429 -1408 0
-1430 -1429 1408 0
1430 1429 1408 0
1430 -1429 -1408 0
-1431 13 0
-1431 33 0
1431 -13 -33 0
-1432 -1431 -1430 0
-1432 1431 1430 0
1432 -1431 1430 0
1432 1431 -1430 0
-1433 1427 -1412 0
-1433 -1427 1412 0
1433 1427 1412 0
1433 -1427 -1412 0
-1434 13 0
-1434 34 0
1434 -13 -34 0
-1435 1433 0
-1435 1434 0
1435 -1433 -1434 0
-1436 -1434 -1433 0
-1436 1434 1433 0
1436 -1434 1433 0
1436 1434 -1433 0
-1437 1425 -1416 0
-1437 -1425 1416 0
1437 1425 1416 0
1437 -1425 -1416 0
-1438 13 0
-1438 35 0
1438 -13 -35 0
-1439 1437 0
-1439 1438 0
1439 -1437 -1438 0
-1440 -1438 -1437 0
-1440 1438 1437 0
1440 -1438 1437 0
1440 1438 -1437 0
-1441 -1423 -1420 0
-1441 1423 1420 0
1441 -1423 1420 0
1441 1423 -1420 0
-1442 13 0
-1442 36 0
1442 -13 -36 0
-1443 1441 0
-1443 1442 0
1443 -1441 -1442 0
-1444 1440 0
-1444 1443 0
1444 -1440 -1443 0
-1445 -1439 0
-1445 -1444 0
1445 1439 1444 0
-1446 1436 0
-1446 -1445 0
1446 -1436 1445 0
-1447 -1435 0
-1447 -1446 0
1447 1435 1446 0
-1448 1447 -1432 0
-1448 -1447 1432 0
1448 1447 1432 0
1448 -1447 -1432 0
-1449 12 0
-1449 34 0
1449 -12 -34 0
-1450 -1449 -1448 0
-1450 1449 1448 0
1450 -1449 1448 0
1450 1449 -1448 0
-1451 1445 -1436 0
-1451 -1445 1436 0
1451 1445 1436 0
1451 -1445 -1436 0
-1452 12 0
-1452 35 0
1452 -12 -35 0
-1453 1451 0
-1453 1452 0
1453 -1451 -1452 0
-1454 -1452 -1451 0
-1454 1452 1451 0
1454 -1452 1451 0
1454 1452 -1451 0
-1455 -1443 -1440 0
-1455 1443 1440 0
1455 -1443 1440 0
1455 1443 -1440 0
-1456 12 0
-1456 36 0
1456 -12 -36 0
-1457 1455 0
-1457 1456 0
1457 -1455 -1456 0
-1458 1454 0
-1458 1457 0
1458 -1454 -1457 0
-1459 -1453 0
-1459 -1458 0
1459 1453 1458 0
-1460 1459 -1450 0
-1460 -1459 1450 0
1460 1459 1450 0
1460 -1459 -1450 0
-1461 11 0
-1461 35 0
1461 -11 -35 0
-1462 -1461 -1460 0
-1462 1461 1460 0
1462 -1461 1460 0
1462 1461 -1460 0
-1463 -1457 -1454 0
-1463 1457 1454 0
1463 -1457 1454 0
1463 1457 -1454 0
-1464 11 0
-1464 36 0
1464 -11 -36 0
-1465 1463 0
-1465 1464 0
1465 -1463 -1464 0
-1466 -1465 -1462 0
-1466 1465 1462 0
1466 -1465 1462 0
1466 1465 -1462 0
-1467 10 0
-1467 36 0
1467 -10 -36 0
-1468 -1467 -1466 0
-1468 1467 1466 0
1468 -1467 1466 0
1468 1467 -1466 0
-1469 29 0
-1469 1468 0
1469 -29 -1468 0
-1470 -1464 -1463 0
-1470 1464 1463 0
1470 -1464 1463 0
1470 1464 -1463 0
-1471 31 0
-1471 1470 0
1471 -31 -1470 0
-1472 -1471 -1469 0
-1472 1471 1469 0
1472 -1471 1469 0
1472 1471 -1469 0
-1473 29 0
-1473 1470 0
1473 -29 -1470 0
-1474 -1456 -1455 0
-1474 1456 1455 0
1474 -1456 1455 0
1474 1456 -1455 0
-1475 31 0
-1475 1474 0
1475 -31 -1474 0
-1476 1473 0
-1476 1475 0
1476 -1473 -1475 0
-1477 -1475 -1473 0
-1477 1475 1473 0
1477 -1475 1473 0
1477 1475 -1473 0
-1478 29 0
-1478 1474 0
1478 -29 -1474 0
-1479 -1442 -1441 0
-1479 1442 1441 0
1479 -1442 1441 0
1479 1442 -1441 0
-1480 31 0
-1480 1479 0
1480 -31 -1479 0
-1481 1478 0
-1481 1480 0
1481 -1478 -1480 0
-1482 -1480 -1478 0
-1482 1480 1478 0
1482 -1480 1478 0
1482 1480 -1478 0
-1483 29 0
-1483 1479 0
1483 -29 -1479 0
-1484 -1422 -1421 0
-1484 1422 1421 0
1484 -1422 1421 0
1484 1422 -1421 0
-1485 31 0
-1485 1484 0
1485 -31 -1484 0
-1486 1483 0
-1486 1485 0
1486 -1483 -1485 0
-1487 -1485 -1483 0
-1487 1485 1483 0
1487 -1485 1483 0
1487 1485 -1483 0
-1488 29 0
-1488 1484 0
1488 -29 -1484 0
-1489 -1396 -1395 0
-1489 1396 1395 0
1489 -1396 1395 0
1489 1396 -1395 0
-1490 31 0
-1490 1489 0
1490 -31 -1489 0
-1491 1488 0
-1491 1490 0
1491 -1488 -1490 0
-1492 -1490 -1488 0
-1492 1490 1488 0
1492 -1490 1488 0
1492 1490 -1488 0
-1493 29 0
-1493 1489 0
1493 -29 -1489 0
-1494 -1364 -1363 0
-1494 1364 1363 0
1494 -1364 1363 0
1494 1364 -1363 0
-1495 31 0
-1495 1494 0
1495 -31 -1494 0
-1496 1493 0
-1496 1495 0
1496 -1493 -1495 0
-1497 -1495 -1493 0
-1497 1495 1493 0
1497 -1495 1493 0
1497 1495 -1493 0
-1498 29 0
-1498 1494 0
1498 -29 -1494 0
-1499 -1326 -1325 0
-1499 1326 1325 0
1499 -1326 1325 0
1499 1326 -1325 0
-1500 31 0
-1500 1499 0
1500 -31 -1499 0
-1501 1498 0
-1501 1500 0
1501 -1498 -1500 0
-1502 -1500 -1498 0
-1502 1500 1498 0
1502 -1500 1498 0
1502 1500 -1498 0
-1503 29 0
-1503 1499 0
1503 -29 -1499 0
-1504 -1282 -1281 0
-1504 1282 1281 0
1504 -1282 1281 0
1504 1282 -1281 0
-1505 31 0
-1505 1504 0
1505 -31 -1504 0
-1506 1503 0
-1506 1505 0
1506 -1503 -1505 0
-1507 -1505 -1503 0
-1507 1505 1503 0
1507 -1505 1503 0
1507 1505 -1503 0
-1508 29 0
-1508 1504 0
1508 -29 -1504 0
-1509 -1232 -1231 0
-1509 1232 1231 0
1509 -1232 1231 0
1509 1232 -1231 0
-1510 31 0
-1510 1509 0
1510 -31 -1509 0
-1511 1508 0
-1511 1510 0
1511 -1508 -1510 0
-1512 -1510 -1508 0
-1512 1510 1508 0
1512 -1510 1508 0
1512 1510 -1508 0
-1513 29 0
-1513 1509 0
1513 -29 -1509 0
-1514 -1176 -1175 0
-1514 1176 1175 0
1514 -1176 1175 0
1514 1176 -1175 0
-1515 31 0
-1515 1514 0
1515 -31 -1514 0
-1516 1513 0
-1516 1515 0
1516 -1513 -1515 0
-1517 -1515 -1513 0
-1517 1515 1513 0
1517 -1515 1513 0
1517 1515 -1513 0
-1518 29 0
-1518 1514 0
1518 -29 -1514 0
-1519 -1114 -1113 0
-1519 1114 1113 0
1519 -1114 1113 0
1519 1114 -1113 0
-1520 31 0
-1520 1519 0
1520 -31 -1519 0
-1521 1518 0
-1521 1520 0
1521 -1518 -1520 0
-1522 -1520 -1518 0
-1522 1520 1518 0
1522 -1520 1518 0
1522 1520 -1518 0
-1523 29 0
-1523 1519 0
1523 -29 -1519 0
-1524 -1046 -1045 0
-1524 1046 1045 0
1524 -1046 1045 0
1524 1046 -1045 0
-1525 31 0
-1525 1524 0
1525 -31 -1524 0
-1526 1523 0
-1526 1525 0
1526 -1523 -1525 0
-1527 -1525 -1523 0
-1527 1525 1523 0
1527 -1525 1523 0
1527 1525 -1523 0
-1528 29 0
-1528 1524 0
1528 -29 -1524 0
-1529 28 0
-1529 36 0
1529 -28 -36 0
-1530 31 0
-1530 1529 0
1530 -31 -1529 0
-1531 1528 0
-1531 1530 0
1531 -1528 -1530 0
-1532 1527 0
-1532 1531 0
1532 -1527 -1531 0
-1533 -1526 0
-1533 -1532 0
1533 1526 1532 0
-1534 1522 0
-1534 -1533 0
1534 -1522 1533 0
-1535 -1521 0
-1535 -1534 0
1535 1521 1534 0
-1536 1517 0
-1536 -1535 0
1536 -1517 1535 0
-1537 -1516 0
-1537 -1536 0
1537 1516 1536 0
-1538 1512 0
-1538 -1537 0
1538 -1512 1537 0
-1539 -1511 0
-1539 -1538 0
1539 1511 1538 0
-1540 1507 0
-1540 -1539 0
1540 -1507 1539 0
-1541 -1506 0
-1541 -1540 0
1541 1506 1540 0
-1542 1502 0
-1542 -1541 0
1542 -1502 1541 0
-1543 -1501 0
-1543 -1542 0
1543 1501 1542 0
-1544 1497 0
-1544 -1543 0
1544 -1497 1543 0
-1545 -1496 0
-1545 -1544 0
1545 1496 1544 0
-1546 1492 0
-1546 -1545 0
1546 -1492 1545 0
-1547 -1491 0
-1547 -1546 0
1547 1491 1546 0
-1548 1487 0
-1548 -1547 0
1548 -1487 1547 0
-1549 -1486 0
-1549 -1548 0
1549 1486 1548 0
-1550 1482 0
-1550 -1549 0
1550 -1482 1549 0
-1551 -1481 0
-1551 -1550 0
1551 1481 1550 0
-1552 1477 0
-1552 -1551 0
1552 -1477 1551 0
-1553 -1476 0
-1553 -1552 0
1553 1476 1552 0
-1554 1553 -1472 0
-1554 -1553 1472 0
1554 1553 1472 0
1554 -1553 -1472 0
-1555 38 0
-1555 1474 0
1555 -38 -1474 0
-1556 -1555 -1554 0
-1556 1555 1554 0
1556 -1555 1554 0
1556 1555 -1554 0
-1557 1551 -1477 0
-1557 -1551 1477 0
1557 1551 1477 0
1557 -1551 -1477 0
-1558 38 0
-1558 1479 0
1558 -38 -1479 0
-1559 1557 0
-1559 1558 0
1559 -1557 -1558 0
-1560 -1558 -1557 0
-1560 1558 1557 0
1560 -1558 1557 0
1560 1558 -1557 0
-1561 1549 -1482 0
-1561 -1549 1482 0
1561 1549 1482 0
1561 -1549 -1482 0
-1562 38 0
-1562 1484 0
1562 -38 -1484 0
-1563 1561 0
-1563 1562 0
1563 -1561 -1562 0
-1564 -1562 -1561 0
-1564 1562 1561 0
1564 -1562 1561 0
1564 1562 -1561 0
-1565 1547 -1487 0
-1565 -1547 1487 0
1565 1547 1487 0
1565 -1547 -1487 0
-1566 38 0
-1566 1489 0
1566 -38 -1489 0
-1567 1565 0
-1567 1566 0
1567 -1565 -1566 0
-1568 -1566 -1565 0
-1568 1566 1565 0
1568 -1566 1565 0
1568 1566 -1565 0
-1569 1545 -1492 0
-1569 -1545 1492 0
1569 1545 1492 0
1569 -1545 -1492 0
-1570 38 0
-1570 1494 0
1570 -38 -1494 0
-1571 1569 0
-1571 1570 0
1571 -1569 -1570 0
-1572 -1570 -1569 0
-1572 1570 1569 0
1572 -1570 1569 0
1572 1570 -1569 0
-1573 1543 -1497 0
-1573 -1543 1497 0
1573 1543 1497 0
1573 -1543 -1497 0
-1574 38 0
-1574 1499 0
1574 -38 -1499 0
-1575 1573 0
-1575 1574 0
1575 -1573 -1574 0
-1576 -1574 -1573 0
-1576 1574 1573 0
1576 -1574 1573 0
1576 1574 -1573 0
-1577 1541 -1502 0
-1577 -1541 1502 0
1577 1541 1502 0
1577 -1541 -1502 0
-1578 38 0
-1578 1504 0
1578 -38 -1504 0
-1579 1577 0
-1579 1578 0
1579 -1577 -1578 0
-1580 -1578 -1577 0
-1580 1578 1577 0
1580 -1578 1577 0
1580 1578 -1577 0
-1581 1539 -1507 0
-1581 -1539 1507 0
1581 1539 1507 0
1581 -1539 -1507 0
-1582 38 0
-1582 1509 0
1582 -38 -1509 0
-1583 1581 0
-1583 1582 0
1583 -1581 -1582 0
-1584 -1582 -1581 0
-1584 1582 1581 0
1584 -1582 1581 0
1584 1582 -1581 0
-1585 1537 -1512 0
-1585 -1537 1512 0
1585 1537 1512 0
1585 -1537 -1512 0
-1586 38 0
-1586 1514 0
1586 -38 -1514 0
-1587 1585 0
-1587 1586 0
1587 -1585 -1586 0
-1588 -1586 -1585 0
-1588 1586 1585 0
1588 -1586 1585 0
1588 1586 -1585 0
-1589 1535 -1517 0
-1589 -1535 1517 0
1589 1535 1517 0
1589 -1535 -1517 0
-1590 38 0
-1590 1519 0
1590 -38 -1519 0
-1591 1589 0
-1591 1590 0
1591 -1589 -1590 0
-1592 -1590 -1589 0
-1592 1590 1589 0
1592 -1590 1589 0
1592 1590 -1589 0
-1593 1533 -1522 0
-1593 -1533 1522 0
1593 1533 1522 0
1593 -1533 -1522 0
-1594 38 0
-1594 1524 0
1594 -38 -1524 0
-1595 1593 0
-1595 1594 0
1595 -1593 -1594 0
-1596 -1594 -1593 0
-1596 1594 1593 0
1596 -1594 1593 0
1596 1594 -1593 0
-1597 -1531 -1527 0
-1597 1531 1527 0
1597 -1531 1527 0
1597 1531 -1527 0
-1598 38 0
-1598 1529 0
1598 -38 -1529 0
-1599 1597 0
-1599 1598 0
1599 -1597 -1598 0
-1600 1596 0
-1600 1599 0
1600 -1596 -1599 0
-1601 -1595 0
-1601 -1600 0
1601 1595 1600 0
-1602 1592 0
-1602 -1601 0
1602 -1592 1601 0
-1603 -1591 0
-1603 -1602 0
1603 1591 1602 0
-1604 1588 0
-1604 -1603 0
1604 -1588 1603 0
-1605 -1587 0
-1605 -1604 0
1605 1587 1604 0
-1606 1584 0
-1606 -1605 0
1606 -1584 1605 0
-1607 -1583 0
-1607 -1606 0
1607 1583 1606 0
-1608 1580 0
-1608 -1607 0
1608 -1580 1607 0
-1609 -1579 0
-1609 -1608 0
1609 1579 1608 0
-1610 1576 0
-1610 -1609 0
1610 -1576 1609 0
-1611 -1575 0
-1611 -1610 0
1611 1575 1610 0
-1612 1572 0
-1612 -1611 0
1612 -1572 1611 0
-1613 -1571 0
-1613 -1612 0
1613 1571 1612 0
-1614 1568 0
-1614 -1613 0
1614 -1568 1613 0
-1615 -1567 0
-1615 -1614 0
1615 1567 1614 0
-1616 1564 0
-1616 -1615 0
1616 -1564 1615 0
-1617 -1563 0
-1617 -1616 0
1617 1563 1616 0
-1618 1560 0
-1618 -1617 0
1618 -1560 1617 0
-1619 -1559 0
-1619 -1618 0
1619 1559 1618 0
-1620 1619 -1556 0
-1620 -1619 1556 0
1620 1619 1556 0
1620 -1619 -1556 0
-1621 40 0
-1621 1479 0
1621 -40 -1479 0
-1622 -1621 -1620 0
-1622 1621 1620 0
1622 -1621 1620 0
1622 1621 -1620 0
-1623 1617 -1560 0
-1623 -1617 1560 0
1623 1617 1560 0
1623 -1617 -1560 0
-1624 40 0
-1624 1484 0
1624 -40 -1484 0
-1625 1623 0
-1625 1624 0
1625 -1623 -1624 0
-1626 -1624 -1623 0
-1626 1624 1623 0
1626 -1624 1623 0
1626 1624 -1623 0
-1627 1615 -1564 0
-1627 -1615 1564 0
1627 1615 1564 0
1627 -1615 -1564 0
-1628 40 0
-1628 1489 0
1628 -40 -1489 0
-1629 1627 0
-1629 1628 0
1629 -1627 -1628 0
-1630 -1628 -1627 0
-1630 1628 1627 0
1630 -1628 1627 0
1630 1628 -1627 0
-1631 1613 -1568 0
-1631 -1613 1568 0
1631 1613 1568 0
1631 -1613 -1568 0
-1632 40 0
-1632 1494 0
1632 -40 -1494 0
-1633 1631 0
-1633 1632 0
1633 -1631 -1632 0
-1634 -1632 -1631 0
-1634 1632 1631 0
1634 -1632 1631 0
1634 1632 -1631 0
-1635 1611 -1572 0
-1635 -1611 1572 0
1635 1611 1572 0
1635 -1611 -1572 0
-1636 40 0
-1636 1499 0
1636 -40 -1499 0
-1637 1635 0
-1637 1636 0
1637 -1635 -1636 0
-1638 -1636 -1635 0
-1638 1636 1635 0
1638 -1636 1635 0
1638 1636 -1635 0
-1639 1609 -1576 0
-1639 -1609 1576 0
1639 1609 1576 0
1639 -1609 -1576 0
-1640 40 0
-1640 1504 0
1640 -40 -1504 0
-1641 1639 0
-1641 1640 0
1641 -1639 -1640 0
-1642 -1640 -1639 0
-1642 1640 1639 0
1642 -1640 1639 0
1642 1640 -1639 0
-1643 1607 -1580 0
-1643 -1607 1580 0
1643 1607 1580 0
1643 -1607 -1580 0
-1644 40 0
-1644 1509 0
1644 -40 -1509 0
-1645 1643 0
-1645 1644 0
1645 -1643 -1644 0
-1646 -1644 -1643 0
-1646 1644 1643 0
1646 -1644 1643 0
1646 1644 -1643 0
-1647 1605 -1584 0
-1647 -1605 1584 0
1647 1605 1584 0
1647 -1605 -1584 0
-1648 40 0
-1648 1514 0
1648 -40 -1514 0
-1649 1647 0
-1649 1648 0
1649 -1647 -1648 0
-1650 -1648 -1647 0
-1650 1648 1647 0
1650 -1648 1647 0
1650 1648 -1647 0
-1651 1603 -1588 0
-1651 -1603 1588 0
1651 1603 1588 0
1651 -1603 -1588 0
-1652 40 0
-1652 1519 0
1652 -40 -1519 0
-1653 1651 0
-1653 1652 0
1653 -1651 -1652 0
-1654 -1652 -1651 0
-1654 1652 1651 0
1654 -1652 1651 0
1654 1652 -1651 0
-1655 1601 -1592 0
-1655 -1601 1592 0
1655 1601 1592 0
1655 -1601 -1592 0
-1656 40 0
-1656 1524 0
1656 -40 -1524 0
-1657 1655 0
-1657 1656 0
1657 -1655 -1656 0
-1658 -1656 -1655 0
-1658 1656 1655 0
1658 -1656 1655 0
1658 1656 -1655 0
-1659 -1599 -1596 0
-1659 1599 1596 0
1659 -1599 1596 0
1659 1599 -1596 0
-1660 40 0
-1660 1529 0
1660 -40 -1529 0
-1661 1659 0
-1661 1660 0
1661 -1659 -1660 0
-1662 1658 0
-1662 1661 0
1662 -1658 -1661 0
-1663 -1657 0
-1663 -1662 0
1663 1657 1662 0
-1664 1654 0
-1664 -1663 0
1664 -1654 1663 0
-1665 -1653 0
-1665 -1664 0
1665 1653 1664 0
-1666 1650 0
-1666 -1665 0
1666 -1650 1665 0
-1667 -1649 0
-1667 -1666 0
1667 1649 1666 0
-1668 1646 0
-1668 -1667 0
1668 -1646 1667 0
-1669 -1645 0
-1669 -1668 0
1669 1645 1668 0
-1670 1642 0
-1670 -1669 0
1670 -1642 1669 0
-1671 -1641 0
-1671 -1670 0
1671 1641 1670 0
-1672 1638 0
-1672 -1671 0
1672 -1638 1671 0
-1673 -1637 0
-1673 -1672 0
1673 1637 1672 0
-1674 1634 0
-1674 -1673 0
1674 -1634 1673 0
-1675 -1633 0
-1675 -1674 0
1675 1633 1674 0
-1676 1630 0
-1676 -1675 0
1676 -1630 1675 0
-1677 -1629 0
-1677 -1676 0
1677 1629 1676 0
-1678 1626 0
-1678 -1677 0
1678 -1626 1677 0
-1679 -1625 0
-1679 -1678 0
1679 1625 1678 0
-1680 1679 -1622 0
-1680 -1679 1622 0
1680 1679 1622 0
1680 -1679 -1622 0
-1681 42 0
-1681 1484 0
1681 -42 -1484 0
-1682 -1681 -1680 0
-1682 1681 1680 0
1682 -1681 1680 0
1682 1681 -1680 0
-1683 1677 -1626 0
-1683 -1677 1626 0
1683 1677 1626 0
1683 -1677 -1626 0
-1684 42 0
-1684 1489 0
1684 -42 -1489 0
-1685 1683 0
-1685 1684 0
1685 -1683 -1684 0
-1686 -1684 -1683 0
-1686 1684 1683 0
1686 -1684 1683 0
1686 1684 -1683 0
-1687 1675 -1630 0
-1687 -1675 1630 0
1687 1675 1630 0
1687 -1675 -1630 0
-1688 42 0
-1688 1494 0
1688 -42 -1494 0
-1689 1687 0
-1689 1688 0
1689 -1687 -1688 0
-1690 -1688 -1687 0
-1690 1688 1687 0
1690 -1688 1687 0
1690 1688 -1687 0
-1691 1673 -1634 0
-1691 -1673 1634 0
1691 1673 1634 0
1691 -1673 -1634 0
-1692 42 0
-1692 1499 0
1692 -42 -1499 0
-1693 1691 0
-1693 1692 0
1693 -1691 -1692 0
-1694 -1692 -1691 0
-1694 1692 1691 0
1694 -1692 1691 0
1694 1692 -1691 0
-1695 1671 -1638 0
-1695 -1671 1638 0
1695 1671 1638 0
1695 -1671 -1638 0
-1696 42 0
-1696 1504 0
1696 -42 -1504 0
-1697 1695 0
-1697 1696 0
1697 -1695 -1696 0
-1698 -1696 -1695 0
-1698 1696 1695 0
1698 -1696 1695 0
1698 1696 -1695 0
-1699 1669 -1642 0
-1699 -1669 1642 0
1699 1669 1642 0
1699 -1669 -1642 0
-1700 42 0
-1700 1509 0
1700 -42 -1509 0
-1701 1699 0
-1701 1700 0
1701 -1699 -1700 0
-1702 -1700 -1699 0
-1702 1700 1699 0
1702 -1700 1699 0
1702 1700 -1699 0
-1703 1667 -1646 0
-1703 -1667 1646 0
1703 1667 1646 0
1703 -1667 -1646 0
-1704 42 0
-1704 1514 0
1704 -42 -1514 0
-1705 1703 0
-1705 1704 0
1705 -1703 -1704 0
-1706 -1704 -1703 0
-1706 1704 1703 0
1706 -1704 1703 0
1706 1704 -1703 0
-1707 1665 -1650 0
-1707 -1665 1650 0
1707 1665 1650 0
1707 -1665 -1650 0
-1708 42 0
-1708 1519 0
1708 -42 -1519 0
-1709 1707 0
-1709 1708 0
1709 -1707 -1708 0
-1710 -1708 -1707 0
-1710 1708 1707 0
1710 -1708 1707 0
1710 1708 -1707 0
-1711 1663 -1654 0
-1711 -1663 1654 0
1711 1663 1654 0
1711 -1663 -1654 0
-1712 42 0
-1712 1524 0
1712 -42 -1524 0
-1713 1711 0
-1713 1712 0
1713 -1711 -1712 0
-1714 -1712 -1711 0
-1714 1712 1711 0
1714 -1712 1711 0
1714 1712 -1711 0
-1715 -1661 -1658 0
-1715 1661 1658 0
1715 -1661 1658 0
1715 1661 -1658 0
-1716 42 0
-1716 1529 0
1716 -42 -1529 0
-1717 1715 0
-1717 1716 0
1717 -1715 -1716 0
-1718 1714 0
-1718 1717 0
1718 -1714 -1717 0
-1719 -1713 0
-1719 -1718 0
1719 1713 1718 0
-1720 1710 0
-1720 -1719 0
1720 -1710 1719 0
-1721 -1709 0
-1721 -1720 0
1721 1709 1720 0
-1722 1706 0
-1722 -1721 0
1722 -1706 1721 0
-1723 -1705 0
-1723 -1722 0
1723 1705 1722 0
-1724 1702 0
-1724 -1723 0
1724 -1702 1723 0
-1725 -1701 0
-1725 -1724 0
1725 1701 1724 0
-1726 1698 0
-1726 -1725 0
1726 -1698 1725 0
-1727 -1697 0
-1727 -1726 0
1727 1697 1726 0
-1728 1694 0
-1728 -1727 0
1728 -1694 1727 0
-1729 -1693 0
-1729 -1728 0
1729 1693 1728 0
-1730 1690 0
-1730 -1729 0
1730 -1690 1729 0
-1731 -1689 0
-1731 -1730 0
1731 1689 1730 0
-1732 1686 0
-1732 -1731 0
1732 -1686 1731 0
-1733 -1685 0
-1733 -1732 0
1733 1685 1732 0
-1734 1733 -1682 0
-1734 -1733 1682 0
1734 1733 1682 0
1734 -1733 -1682 0
-1735 27 0
-1735 1489 0
1735 -27 -1489 0
-1736 -1735 -1734 0
-1736 1735 1734 0
1736 -1735 1734 0
1736 1735 -1734 0
-1737 1731 -1686 0
-1737 -1731 1686 0
1737 1731 1686 0
1737 -1731 -1686 0
-1738 27 0
-1738 1494 0
1738 -27 -1494 0
-1739 1737 0
-1739 1738 0
1739 -1737 -1738 0
-1740 -1738 -1737 0
-1740 1738 1737 0
1740 -1738 1737 0
1740 1738 -1737 0
-1741 1729 -1690 0
-1741 -1729 1690 0
1741 1729 1690 0
1741 -1729 -1690 0
-1742 27 0
-1742 1499 0
1742 -27 -1499 0
-1743 1741 0
-1743 1742 0
1743 -1741 -1742 0
-1744 -1742 -1741 0
-1744 1742 1741 0
1744 -1742 1741 0
1744 1742 -1741 0
-1745 1727 -1694 0
-1745 -1727 1694 0
1745 1727 1694 0
1745 -1727 -1694 0
-1746 27 0
-1746 1504 0
1746 -27 -1504 0
-1747 1745 0
-1747 1746 0
1747 -1745 -1746 0
-1748 -1746 -1745 0
-1748 1746 1745 0
1748 -1746 1745 0
1748 1746 -1745 0
-1749 1725 -1698 0
-1749 -1725 1698 0
1749 1725 1698 0
1749 -1725 -1698 0
-1750 27 0
-1750 1509 0
1750 -27 -1509 0
-1751 1749 0
-1751 1750 0
1751 -1749 -1750 0
-1752 -1750 -1749 0
-1752 1750 1749 0
1752 -1750 1749 0
1752 1750 -1749 0
-1753 1723 -1702 0
-1753 -1723 1702 0
1753 1723 1702 0
1753 -1723 -1702 0
-1754 27 0
-1754 1514 0
1754 -27 -1514 0
-1755 1753 0
-1755 1754 0
1755 -1753 -1754 0
-1756 -1754 -1753 0
-1756 1754 1753 0
1756 -1754 1753 0
1756 1754 -1753 0
-1757 1721 -1706 0
-1757 -1721 1706 0
1757 1721 1706 0
1757 -1721 -1706 0
-1758 27 0
-1758 1519 0
1758 -27 -1519 0
-1759 1757 0
-1759 1758 0
1759 -1757 -1758 0
-1760 -1758 -1757 0
-1760 1758 1757 0
1760 -1758 1757 0
1760 1758 -1757 0
-1761 1719 -1710 0
-1761 -1719 1710 0
1761 1719 1710 0
1761 -1719 -1710 0
-1762 27 0
-1762 1524 0
1762 -27 -1524 0
-1763 1761 0
-1763 1762 0
1763 -1761 -1762 0
-1764 -1762 -1761 0
-1764 1762 1761 0
1764 -1762 1761 0
1764 1762 -1761 0
-1765 -1717 -1714 0
-1765 1717 1714 0
1765 -1717 1714 0
1765 1717 -1714 0
-1766 27 0
-1766 1529 0
1766 -27 -1529 0
-1767 1765 0
-1767 1766 0
1767 -1765 -1766 0
-1768 1764 0
-1768 1767 0
1768 -1764 -1767 0
-1769 -1763 0
-1769 -1768 0
1769 1763 1768 0
-1770 1760 0
-1770 -1769 0
1770 -1760 1769 0
-1771 -1759 0
-1771 -1770 0
1771 1759 1770 0
-1772 1756 0
-1772 -1771 0
1772 -1756 1771 0
-1773 -1755 0
-1773 -1772 0
1773 1755 1772 0
-1774 1752 0
-1774 -1773 0
1774 -1752 1773 0
-1775 -1751 0
-1775 -1774 0
1775 1751 1774 0
-1776 1748 0
-1776 -1775 0
1776 -1748 1775 0
-1777 -1747 0
-1777 -1776 0
1777 1747 1776 0
-1778 1744 0
-1778 -1777 0
1778 -1744 1777 0
-1779 -1743 0
-1779 -1778 0
1779 1743 1778 0
-1780 1740 0
-1780 -1779 0
1780 -1740 1779 0
-1781 -1739 0
-1781 -1780 0
1781 1739 1780 0
-1782 1781 -1736 0
-1782 -1781 1736 0
1782 1781 1736 0
1782 -1781 -1736 0
-1783 26 0
-1783 1494 0
1783 -26 -1494 0
-1784 -1783 -1782 0
-1784 1783 1782 0
1784 -1783 1782 0
1784 1783 -1782 0
-1785 1779 -1740 0
-1785 -1779 1740 0
1785 1779 1740 0
1785 -1779 -1740 0
-1786 26 0
-1786 1499 0
1786 -26 -1499 0
-1787 1785 0
-1787 1786 0
1787 -1785 -1786 0
-1788 -1786 -1785 0
-1788 1786 1785 0
1788 -1786 1785 0
1788 1786 -1785 0
-1789 1777 -1744 0
-1789 -1777 1744 0
1789 1777 1744 0
1789 -1777 -1744 0
-1790 26 0
-1790 1504 0
1790 -26 -1504 0
-1791 1789 0
-1791 1790 0
1791 -1789 -1790 0
-1792 -1790 -1789 0
-1792 1790 1789 0
1792 -1790 1789 0
1792 1790 -1789 0
-1793 1775 -1748 0
-1793 -1775 1748 0
1793 1775 1748 0
1793 -1775 -1748 0
-1794 26 0
-1794 1509 0
1794 -26 -1509 0
-1795 1793 0
-1795 1794 0
1795 -1793 -1794 0
-1796 -1794 -1793 0
-1796 1794 1793 0
1796 -1794 1793 0
1796 1794 -1793 0
-1797 1773 -1752 0
-1797 -1773 1752 0
1797 1773 1752 0
1797 -1773 -1752 0
-1798 26 0
-1798 1514 0
1798 -26 -1514 0
-1799 1797 0
-1799 1798 0
1799 -1797 -1798 0
-1800 -1798 -1797 0
-1800 1798 1797 0
1800 -1798 1797 0
1800 1798 -1797 0
-1801 1771 -1756 0
-1801 -1771 1756 0
1801 1771 1756 0
1801 -1771 -1756 0
-1802 26 0
-1802 1519 0
1802 -26 -1519 0
-1803 1801 0
-1803 1802 0
1803 -1801 -1802 0
-1804 -1802 -1801 0
-1804 1802 1801 0
1804 -1802 1801 0
1804 1802 -1801 0
-1805 1769 -1760 0
-1805 -1769 1760 0
1805 1769 1760 0
1805 -1769 -1760 0
-1806 26 0
-1806 1524 0
1806 -26 -1524 0
-1807 1805 0
-1807 1806 0
1807 -1805 -1806 0
-1808 -1806 -1805 0
-1808 1806 1805 0
1808 -1806 1805 0
1808 1806 -1805 0
-1809 -1767 -1764 0
-1809 1767 1764 0
1809 -1767 1764 0
1809 1767 -1764 0
-1810 26 0
-1810 1529 0
1810 -26 -1529 0
-1811 1809 0
-1811 1810 0
1811 -1809 -1810 0
-1812 1808 0
-1812 1811 0
1812 -1808 -1811 0
-1813 -1807 0
-1813 -1812 0
1813 1807 1812 0
-1814 1804 0
-1814 -1813 0
1814 -1804 1813 0
-1815 -1803 0
-1815 -1814 0
1815 1803 1814 0
-1816 1800 0
-1816 -1815 0
1816 -1800 1815 0
-1817 -1799 0
-1817 -1816 0
1817 1799 1816 0
-1818 1796 0
-1818 -1817 0
1818 -1796 1817 0
-1819 -1795 0
-1819 -1818 0
1819 1795 1818 0
-1820 1792 0
-1820 -1819 0
1820 -1792 1819 0
-1821 -1791 0
-1821 -1820 0
1821 1791 1820 0
-1822 1788 0
-1822 -1821 0
1822 -1788 1821 0
-1823 -1787 0
-1823 -1822 0
1823 1787 1822 0
-1824 1823 -1784 0
-1824 -1823 1784 0
1824 1823 1784 0
1824 -1823 -1784 0
-1825 25 0
-1825 1499 0
1825 -25 -1499 0
-1826 -1825 -1824 0
-1826 1825 1824 0
1826 -1825 1824 0
1826 1825 -1824 0
-1827 1821 -1788 0
-1827 -1821 1788 0
1827 1821 1788 0
1827 -1821 -1788 0
-1828 25 0
-1828 1504 0
1828 -25 -1504 0
-1829 1827 0
-1829 1828 0
1829 -1827 -1828 0
-1830 -1828 -1827 0
-1830 1828 1827 0
1830 -1828 1827 0
1830 1828 -1827 0
-1831 1819 -1792 0
-1831 -1819 1792 0
1831 1819 1792 0
1831 -1819 -1792 0
-1832 25 0
-1832 1509 0
1832 -25 -1509 0
-1833 1831 0
-1833 1832 0
1833 -1831 -1832 0
-1834 -1832 -1831 0
-1834 1832 1831 0
1834 -1832 1831 0
1834 1832 -1831 0
-1835 1817 -1796 0
-1835 -1817 1796 0
1835 1817 1796 0
1835 -1817 -1796 0
-1836 25 0
-1836 1514 0
1836 -25 -1514 0
-1837 1835 0
-1837 1836 0
1837 -1835 -1836 0
-1838 -1836 -1835 0
-1838 1836 1835 0
1838 -1836 1835 0
1838 1836 -1835 0
-1839 1815 -1800 0
-1839 -1815 1800 0
1839 1815 1800 0
1839 -1815 -1800 0
-1840 25 0
-1840 1519 0
1840 -25 -1519 0
-1841 1839 0
-1841 1840 0
1841 -1839 -1840 0
-1842 -1840 -1839 0
-1842 1840 1839 0
1842 -1840 1839 0
1842 1840 -1839 0
-1843 1813 -1804 0
-1843 -1813 1804 0
1843 1813 1804 0
1843 -1813 -1804 0
-1844 25 0
-1844 1524 0
1844 -25 -1524 0
-1845 1843 0
-1845 1844 0
1845 -1843 -1844 0
-1846 -1844 -1843 0
-1846 1844 1843 0
1846 -1844 1843 0
1846 1844 -1843 0
-1847 -1811 -1808 0
-1847 1811 1808 0
1847 -1811 1808 0
1847 1811 -1808 0
-1848 25 0
-1848 1529 0
1848 -25 -1529 0
-1849 1847 0
-1849 1848 0
1849 -1847 -1848 0
-1850 1846 0
-1850 1849 0
1850 -1846 -1849 0
-1851 -1845 0
-1851 -1850 0
1851 1845 1850 0
-1852 1842 0
-1852 -1851 0
1852 -1842 1851 0
-1853 -1841 0
-1853 -1852 0
1853 1841 1852 0
-1854 1838 0
-1854 -1853 0
1854 -1838 1853 0
-1855 -1837 0
-1855 -1854 0
1855 1837 1854 0
-1856 1834 0
-1856 -1855 0
1856 -1834 1855 0
-1857 -1833 0
-1857 -1856 0
1857 1833 1856 0
-1858 1830 0
-1858 -1857 0
1858 -1830 1857 0
-1859 -1829 0
-1859 -1858 0
1859 1829 1858 0
-1860 1859 -1826 0
-1860 -1859 1826 0
1860 1859 1826 0
1860 -1859 -1826 0
-1861 24 0
-1861 1504 0
1861 -24 -1504 0
-1862 -1861 -1860 0
-1862 1861 1860 0
1862 -1861 1860 0
1862 1861 -1860 0
-1863 1857 -1830 0
-1863 -1857 1830 0
1863 1857 1830 0
1863 -1857 -1830 0
-1864 24 0
-1864 1509 0
1864 -24 -1509 0
-1865 1863 0
-1865 1864 0
1865 -1863 -1864 0
-1866 -1864 -1863 0
-1866 1864 1863 0
1866 -1864 1863 0
1866 1864 -1863 0
-1867 1855 -1834 0
-1867 -1855 1834 0
1867 1855 1834 0
1867 -1855 -1834 0
-1868 24 0
-1868 1514 0
1868 -24 -1514 0
-1869 1867 0
-1869 1868 0
1869 -1867 -1868 0
-1870 -1868 -1867 0
-1870 1868 1867 0
1870 -1868 1867 0
1870 1868 -1867 0
-1871 1853 -1838 0
-1871 -1853 1838 0
1871 1853 1838 0
1871 -1853 -1838 0
-1872 24 0
-1872 1519 0
1872 -24 -1519 0
-1873 1871 0
-1873 1872 0
1873 -1871 -1872 0
-1874 -1872 -1871 0
-1874 1872 1871 0
1874 -1872 1871 0
1874 1872 -1871 0
-1875 1851 -1842 0
-1875 -1851 1842 0
1875 1851 1842 0
1875 -1851 -1842 0
-1876 24 0
-1876 1524 0
1876 -24 -1524 0
-1877 1875 0
-1877 1876 0
1877 -1875 -1876 0
-1878 -1876 -1875 0
-1878 1876 1875 0
1878 -1876 1875 0
1878 1876 -1875 0
-1879 -1849 -1846 0
-1879 1849 1846 0
1879 -1849 1846 0
1879 1849 -1846 0
-1880 24 0
-1880 1529 0
1880 -24 -1529 0
-1881 1879 0
-1881 1880 0
1881 -1879 -1880 0
-1882 1878 0
-1882 1881 0
1882 -1878 -1881 0
-1883 -1877 0
-1883 -1882 0
1883 1877 1882 0
-1884 1874 0
-1884 -1883 0
1884 -1874 1883 0
-1885 -1873 0
-1885 -1884 0
1885 1873 1884 0
-1886 1870 0
-1886 -1885 0
1886 -1870 1885 0
-1887 -1869 0
-1887 -1886 0
1887 1869 1886 0
-1888 1866 0
-1888 -1887 0
1888 -1866 1887 0
-1889 -1865 0
-1889 -1888 0
1889 1865 1888 0
-1890 1889 -1862 0
-1890 -1889 1862 0
1890 1889 1862 0
1890 -1889 -1862 0
-1891 23 0
-1891 1509 0
1891 -23 -1509 0
-1892 -1891 -1890 0
-1892 1891 1890 0
1892 -1891 1890 0
1892 1891 -1890 0
-1893 1887 -1866 0
-1893 -1887 1866 0
1893 1887 1866 0
1893 -1887 -1866 0
-1894 23 0
-1894 1514 0
1894 -23 -1514 0
-1895 1893 0
-1895 1894 0
1895 -1893 -1894 0
-1896 -1894 -1893 0
-1896 1894 1893 0
1896 -1894 1893 0
1896 1894 -1893 0
-1897 1885 -1870 0
-1897 -1885 1870 0
1897 1885 1870 0
1897 -1885 -1870 0
-1898 23 0
-1898 1519 0
1898 -23 -1519 0
-1899 1897 0
-1899 1898 0
1899 -1897 -1898 0
-1900 -1898 -1897 0
-1900 1898 1897 0
1900 -1898 1897 0
1900 1898 -1897 0
-1901 1883 -1874 0
-1901 -1883 1874 0
1901 1883 1874 0
1901 -1883 -1874 0
-1902 23 0
-1902 1524 0
1902 -23 -1524 0
-1903 1901 0
-1903 1902 0
1903 -1901 -1902 0
-1904 -1902 -1901 0
-1904 1902 1901 0
1904 -1902 1901 0
1904 1902 -1901 0
-1905 -1881 -1878 0
-1905 1881 1878 0
1905 -1881 1878 0
1905 1881 -1878 0
-1906 23 0
-1906 1529 0
1906 -23 -1529 0
-1907 1905 0
-1907 1906 0
1907 -1905 -1906 0
-1908 1904 0
-1908 1907 0
1908 -1904 -1907 0
-1909 -1903 0
-1909 -1908 0
1909 1903 1908 0
-1910 1900 0
-1910 -1909 0
1910 -1900 1909 0
-1911 -1899 0
-1911 -1910 0
1911 1899 1910 0
-1912 1896 0
-1912 -1911 0
1912 -1896 1911 0
-1913 -1895 0
-1913 -1912 0
1913 1895 1912 0
-1914 1913 -1892 0
-1914 -1913 1892 0
1914 1913 1892 0
1914 -1913 -1892 0
-1915 22 0
-1915 1514 0
1915 -22 -1514 0
-1916 -1915 -1914 0
-1916 1915 1914 0
1916 -1915 1914 0
1916 1915 -1914 0
-1917 1911 -1896 0
-1917 -1911 1896 0
1917 1911 1896 0
1917 -1911 -1896 0
-1918 22 0
-1918 1519 0
1918 -22 -1519 0
-1919 1917 0
-1919 1918 0
1919 -1917 -1918 0
-1920 -1918 -1917 0
-1920 1918 1917 0
1920 -1918 1917 0
1920 1918 -1917 0
-1921 1909 -1900 0
-1921 -1909 1900 0
1921 1909 1900 0
1921 -1909 -1900 0
-1922 22 0
-1922 1524 0
1922 -22 -1524 0
-1923 1921 0
-1923 1922 0
1923 -1921 -1922 0
-1924 -1922 -1921 0
-1924 1922 1921 0
1924 -1922 1921 0
1924 1922 -1921 0
-1925 -1907 -1904 0
-1925 1907 1904 0
1925 -1907 1904 0
1925 1907 -1904 0
-1926 22 0
-1926 1529 0
1926 -22 -1529 0
-1927 1925 0
-1927 1926 0
1927 -1925 -1926 0
-1928 1924 0
-1928 1927 0
1928 -1924 -1927 0
-1929 -1923 0
-1929 -1928 0
1929 1923 1928 0
-1930 1920 0
-1930 -1929 0
1930 -1920 1929 0
-1931 -1919 0
-1931 -1930 0
1931 1919 1930 0
-1932 1931 -1916 0
-1932 -1931 1916 0
1932 1931 1916 0
1932 -1931 -1916 0
-1933 21 0
-1933 1519 0
1933 -21 -1519 0
-1934 -1933 -1932 0
-1934 1933 1932 0
1934 -1933 1932 0
1934 1933 -1932 0
-1935 1929 -1920 0
-1935 -1929 1920 0
1935 1929 1920 0
1935 -1929 -1920 0
-1936 21 0
-1936 1524 0
1936 -21 -1524 0
-1937 1935 0
-1937 1936 0
1937 -1935 -1936 0
-1938 -1936 -1935 0
-1938 1936 1935 0
1938 -1936 1935 0
1938 1936 -1935 0
-1939 -1927 -1924 0
-1939 1927 1924 0
1939 -1927 1924 0
1939 1927 -1924 0
-1940 21 0
-1940 1529 0
1940 -21 -1529 0
-1941 1939 0
-1941 1940 0
1941 -1939 -1940 0
-1942 1938 0
-1942 1941 0
1942 -1938 -1941 0
-1943 -1937 0
-1943 -1942 0
1943 1937 1942 0
-1944 1943 -1934 0
-1944 -1943 1934 0
1944 1943 1934 0
1944 -1943 -1934 0
-1945 20 0
-1945 1524 0
1945 -20 -1524 0
-1946 -1945 -1944 0
-1946 1945 1944 0
1946 -1945 1944 0
1946 1945 -1944 0
-1947 -1941 -1938 0
-1947 1941 1938 0
1947 -1941 1938 0
1947 1941 -1938 0
-1948 20 0
-1948 1529 0
1948 -20 -1529 0
-1949 1947 0
-1949 1948 0
1949 -1947 -1948 0
-1950 -1949 -1946 0
-1950 1949 1946 0
1950 -1949 1946 0
1950 1949 -1946 0
-1951 19 0
-1951 1529 0
1951 -19 -1529 0
-1952 -1951 -1950 0
-1952 1951 1950 0
1952 -1951 1950 0
1952 1951 -1950 0
1953 1952 997 0
1953 -1952 -997 0
-1954 -943 -942 0
-1954 943 942 0
1954 -943 942 0
1954 943 -942 0
-1955 -1948 -1947 0
-1955 1948 1947 0
1955 -1948 1947 0
1955 1948 -1947 0
1956 1955 1954 0
1956 -1955 -1954 0
1957 -1953 -1956 0
-1958 -866 -865 0
-1958 866 865 0
1958 -866 865 0
1958 866 -865 0
-1959 -1940 -1939 0
-1959 1940 1939 0
1959 -1940 1939 0
1959 1940 -1939 0
1960 1959 1958 0
1960 -1959 -1958 0
1961 -1957 -1960 0
-1962 -789 -788 0
-1962 789 788 0
1962 -789 788 0
1962 789 -788 0
-1963 -1926 -1925 0
-1963 1926 1925 0
1963 -1926 1925 0
1963 1926 -1925 0
1964 1963 1962 0
1964 -1963 -1962 0
1965 -1961 -1964 0
-1966 -712 -711 0
-1966 712 711 0
1966 -712 711 0
1966 712 -711 0
-1967 -1906 -1905 0
-1967 1906 1905 0
1967 -1906 1905 0
1967 1906 -1905 0
1968 1967 1966 0
1968 -1967 -1966 0
1969 -1965 -1968 0
-1970 -635 -634 0
-1970 635 634 0
1970 -635 634 0
1970 635 -634 0
-1971 -1880 -1879 0
-1971 1880 1879 0
1971 -1880 1879 0
1971 1880 -1879 0
1972 1971 1970 0
1972 -1971 -1970 0
1973 -1969 -1972 0
-1974 -558 -557 0
-1974 558 557 0
1974 -558 557 0
1974 558 -557 0
-1975 -1848 -1847 0
-1975 1848 1847 0
1975 -1848 1847 0
1975 1848 -1847 0
1976 1975 1974 0
1976 -1975 -1974 0
1977 -1973 -1976 0
-1978 -481 -480 0
-1978 481 480 0
1978 -481 480 0
1978 481 -480 0
-1979 -1810 -1809 0
-1979 1810 1809 0
1979 -1810 1809 0
1979 1810 -1809 0
1980 1979 1978 0
1980 -1979 -1978 0
1981 -1977 -1980 0
-1982 -404 -403 0
-1982 404 403 0
1982 -404 403 0
1982 404 -403 0
-1983 -1766 -1765 0
-1983 1766 1765 0
1983 -1766 1765 0
1983 1766 -1765 0
1984 1983 1982 0
1984 -1983 -1982 0
1985 -1981 -1984 0
-1986 -327 -326 0
-1986 327 326 0
1986 -327 326 0
1986 327 -326 0
-1987 -1716 -1715 0
-1987 1716 1715 0
1987 -1716 1715 0
1987 1716 -1715 0
1988 1987 1986 0
1988 -1987 -1986 0
1989 -1985 -1988 0
-1990 -250 -249 0
-1990 250 249 0
1990 -250 249 0
1990 250 -249 0
-1991 -1660 -1659 0
-1991 1660 1659 0
1991 -1660 1659 0
1991 1660 -1659 0
1992 1991 1990 0
1992 -1991 -1990 0
1993 -1989 -1992 0
-1994 -173 -172 0
-1994 173 172 0
1994 -173 172 0
1994 173 -172 0
-1995 -1598 -1597 0
-1995 1598 1597 0
1995 -1598 1597 0
1995 1598 -1597 0
1996 1995 1994 0
1996 -1995 -1994 0
1997 -1993 -1996 0
-1998 -96 -95 0
-1998 96 95 0
1998 -96 95 0
1998 96 -95 0
-1999 -1530 -1528 0
-1999 1530 1528 0
1999 -1530 1528 0
1999 1530 -1528 0
2000 1999 1998 0
2000 -1999 -1998 0
2001 -1997 -2000 0
-2002 36 0
-2002 43 0
2002 -36 -43 0
-2003 29 0
-2003 1529 0
2003 -29 -1529 0
2004 2003 2002 0
2004 -2003 -2002 0
2005 -2001 -2004 0
2006 -26 -27 0
2007 -25 -2006 0
-2008 -24 0
-2008 -2007 0
-2009 -23 0
-2009 2008 0
-2010 -22 0
-2010 2009 0
-2011 -21 0
-2011 2010 0
-2012 -20 0
-2012 2011 0
-2013 -19 0
-2013 2012 0
2014 -8 -9 0
2015 -7 -2014 0
-2016 -6 0
-2016 -2015 0
-2017 -5 0
-2017 2016 0
-2018 -4 0
-2018 2017 0
-2019 -3 0
-2019 2018 0
-2020 -2 0
-2020 2019 0
-2021 -1 0
-2021 2020 0
2022 -17 -18 0
2023 -16 -2022 0
-2024 -15 0
-2024 -2023 0
-2025 -14 0
-2025 2024 0
-2026 -13 0
-2026 2025 0
-2027 -12 0
-2027 2026 0
-2028 -11 0
-2028 2027 0
-2029 -10 0
-2029 2028 0
-2030 2021 0
-2030 2029 0
-2031 2013 0
-2031 2030 0
-2032 -2005 0
-2032 2031 0
2032 0
