p cnf 2371 7648
-46 30 0
-46 45 0
46 -30 -45 0
-47 1 0
-47 46 0
47 -1 -46 0
-48 29 0
-48 45 0
48 -29 -45 0
-49 30 0
-49 44 0
49 -30 -44 0
-50 48 0
-50 49 0
50 -48 -49 0
-51 -49 -48 0
-51 49 48 0
51 -49 48 0
51 49 -48 0
-52 2 0
-52 51 0
52 -2 -51 0
-53 -52 -47 0
-53 52 47 0
53 -52 47 0
53 52 -47 0
-54 2 0
-54 46 0
54 -2 -46 0
-55 3 0
-55 51 0
55 -3 -51 0
-56 54 0
-56 55 0
56 -54 -55 0
-57 -55 -54 0
-57 55 54 0
57 -55 54 0
57 55 -54 0
-58 3 0
-58 46 0
58 -3 -46 0
-59 4 0
-59 51 0
59 -4 -51 0
-60 58 0
-60 59 0
60 -58 -59 0
-61 -59 -58 0
-61 59 58 0
61 -59 58 0
61 59 -58 0
-62 4 0
-62 46 0
62 -4 -46 0
-63 5 0
-63 51 0
63 -5 -51 0
-64 62 0
-64 63 0
64 -62 -63 0
-65 -63 -62 0
-65 63 62 0
65 -63 62 0
65 63 -62 0
-66 5 0
-66 46 0
66 -5 -46 0
-67 6 0
-67 51 0
67 -6 -51 0
-68 66 0
-68 67 0
68 -66 -67 0
-69 -67 -66 0
-69 67 66 0
69 -67 66 0
69 67 -66 0
-70 6 0
-70 46 0
70 -6 -46 0
-71 7 0
-71 51 0
71 -7 -51 0
-72 70 0
-72 71 0
72 -70 -71 0
-73 -71 -70 0
-73 71 70 0
73 -71 70 0
73 71 -70 0
-74 7 0
-74 46 0
74 -7 -46 0
-75 8 0
-75 51 0
75 -8 -51 0
-76 74 0
-76 75 0
76 -74 -75 0
-77 -75 -74 0
-77 75 74 0
77 -75 74 0
77 75 -74 0
-78 8 0
-78 46 0
78 -8 -46 0
-79 9 0
-79 51 0
79 -9 -51 0
-80 78 0
-80 79 0
80 -78 -79 0
-81 -79 -78 0
-81 79 78 0
81 -79 78 0
81 79 -78 0
-82 9 0
-82 46 0
82 -9 -46 0
-83 10 0
-83 51 0
83 -10 -51 0
-84 82 0
-84 83 0
84 -82 -83 0
-85 -83 -82 0
-85 83 82 0
85 -83 82 0
85 83 -82 0
-86 10 0
-86 46 0
86 -10 -46 0
-87 11 0
-87 51 0
87 -11 -51 0
-88 86 0
-88 87 0
88 -86 -87 0
-89 -87 -86 0
-89 87 86 0
89 -87 86 0
89 87 -86 0
-90 11 0
-90 46 0
90 -11 -46 0
-91 12 0
-91 51 0
91 -12 -51 0
-92 90 0
-92 91 0
92 -90 -91 0
-93 -91 -90 0
-93 91 90 0
93 -91 90 0
93 91 -90 0
-94 12 0
-94 46 0
94 -12 -46 0
-95 13 0
-95 51 0
95 -13 -51 0
-96 94 0
-96 95 0
96 -94 -95 0
-97 -95 -94 0
-97 95 94 0
97 -95 94 0
97 95 -94 0
-98 13 0
-98 46 0
98 -13 -46 0
-99 14 0
-99 51 0
99 -14 -51 0
-100 98 0
-100 99 0
100 -98 -99 0
-101 -99 -98 0
-101 99 98 0
101 -99 98 0
101 99 -98 0
-102 14 0
-102 46 0
102 -14 -46 0
-103 15 0
-103 51 0
103 -15 -51 0
-104 102 0
-104 103 0
104 -102 -103 0
-105 101 0
-105 104 0
105 -101 -104 0
-106 -100 0
-106 -105 0
106 100 105 0
-107 97 0
-107 -106 0
107 -97 106 0
-108 -96 0
-108 -107 0
108 96 107 0
-109 93 0
-109 -108 0
109 -93 108 0
-110 -92 0
-110 -109 0
110 92 109 0
-111 89 0
-111 -110 0
111 -89 110 0
-112 -88 0
-112 -111 0
112 88 111 0
-113 85 0
-113 -112 0
113 -85 112 0
-114 -84 0
-114 -113 0
114 84 113 0
-115 81 0
-115 -114 0
115 -81 114 0
-116 -80 0
-116 -115 0
116 80 115 0
-117 77 0
-117 -116 0
117 -77 116 0
-118 -76 0
-118 -117 0
118 76 117 0
-119 73 0
-119 -118 0
119 -73 118 0
-120 -72 0
-120 -119 0
120 72 119 0
-121 69 0
-121 -120 0
121 -69 120 0
-122 -68 0
-122 -121 0
122 68 121 0
-123 65 0
-123 -122 0
123 -65 122 0
-124 -64 0
-124 -123 0
124 64 123 0
-125 61 0
-125 -124 0
125 -61 124 0
-126 -60 0
-126 -125 0
126 60 125 0
-127 57 0
-127 -126 0
127 -57 126 0
-128 -56 0
-128 -127 0
128 56 127 0
-129 128 -53 0
-129 -128 53 0
129 128 53 0
129 -128 -53 0
-130 28 0
-130 45 0
130 -28 -45 0
-131 29 0
-131 44 0
131 -29 -44 0
-132 130 0
-132 131 0
132 -130 -131 0
-133 -131 -130 0
-133 131 130 0
133 -131 130 0
133 131 -130 0
-134 50 0
-134 133 0
134 -50 -133 0
-135 -133 -50 0
-135 133 50 0
135 -133 50 0
135 133 -50 0
-136 30 0
-136 43 0
136 -30 -43 0
-137 135 0
-137 136 0
137 -135 -136 0
-138 -136 -135 0
-138 136 135 0
138 -136 135 0
138 136 -135 0
-139 3 0
-139 138 0
139 -3 -138 0
-140 -139 -129 0
-140 139 129 0
140 -139 129 0
140 139 -129 0
-141 126 -57 0
-141 -126 57 0
141 126 57 0
141 -126 -57 0
-142 4 0
-142 138 0
142 -4 -138 0
-143 141 0
-143 142 0
143 -141 -142 0
-144 -142 -141 0
-144 142 141 0
144 -142 141 0
144 142 -141 0
-145 124 -61 0
-145 -124 61 0
145 124 61 0
145 -124 -61 0
-146 5 0
-146 138 0
146 -5 -138 0
-147 145 0
-147 146 0
147 -145 -146 0
-148 -146 -145 0
-148 146 145 0
148 -146 145 0
148 146 -145 0
-149 122 -65 0
-149 -122 65 0
149 122 65 0
149 -122 -65 0
-150 6 0
-150 138 0
150 -6 -138 0
-151 149 0
-151 150 0
151 -149 -150 0
-152 -150 -149 0
-152 150 149 0
152 -150 149 0
152 150 -149 0
-153 120 -69 0
-153 -120 69 0
153 120 69 0
153 -120 -69 0
-154 7 0
-154 138 0
154 -7 -138 0
-155 153 0
-155 154 0
155 -153 -154 0
-156 -154 -153 0
-156 154 153 0
156 -154 153 0
156 154 -153 0
-157 118 -73 0
-157 -118 73 0
157 118 73 0
157 -118 -73 0
-158 8 0
-158 138 0
158 -8 -138 0
-159 157 0
-159 158 0
159 -157 -158 0
-160 -158 -157 0
-160 158 157 0
160 -158 157 0
160 158 -157 0
-161 116 -77 0
-161 -116 77 0
161 116 77 0
161 -116 -77 0
-162 9 0
-162 138 0
162 -9 -138 0
-163 161 0
-163 162 0
163 -161 -162 0
-164 -162 -161 0
-164 162 161 0
164 -162 161 0
164 162 -161 0
-165 114 -81 0
-165 -114 81 0
165 114 81 0
165 -114 -81 0
-166 10 0
-166 138 0
166 -10 -138 0
-167 165 0
-167 166 0
167 -165 -166 0
-168 -166 -165 0
-168 166 165 0
168 -166 165 0
168 166 -165 0
-169 112 -85 0
-169 -112 85 0
169 112 85 0
169 -112 -85 0
-170 11 0
-170 138 0
170 -11 -138 0
-171 169 0
-171 170 0
171 -169 -170 0
-172 -170 -169 0
-172 170 169 0
172 -170 169 0
172 170 -169 0
-173 110 -89 0
-173 -110 89 0
173 110 89 0
173 -110 -89 0
-174 12 0
-174 138 0
174 -12 -138 0
-175 173 0
-175 174 0
175 -173 -174 0
-176 -174 -173 0
-176 174 173 0
176 -174 173 0
176 174 -173 0
-177 108 -93 0
-177 -108 93 0
177 108 93 0
177 -108 -93 0
-178 13 0
-178 138 0
178 -13 -138 0
-179 177 0
-179 178 0
179 -177 -178 0
-180 -178 -177 0
-180 178 177 0
180 -178 177 0
180 178 -177 0
-181 106 -97 0
-181 -106 97 0
181 106 97 0
181 -106 -97 0
-182 14 0
-182 138 0
182 -14 -138 0
-183 181 0
-183 182 0
183 -181 -182 0
-184 -182 -181 0
-184 182 181 0
184 -182 181 0
184 182 -181 0
-185 -104 -101 0
-185 104 101 0
185 -104 101 0
185 104 -101 0
-186 15 0
-186 138 0
186 -15 -138 0
-187 185 0
-187 186 0
187 -185 -186 0
-188 184 0
-188 187 0
188 -184 -187 0
-189 -183 0
-189 -188 0
189 183 188 0
-190 180 0
-190 -189 0
190 -180 189 0
-191 -179 0
-191 -190 0
191 179 190 0
-192 176 0
-192 -191 0
192 -176 191 0
-193 -175 0
-193 -192 0
193 175 192 0
-194 172 0
-194 -193 0
194 -172 193 0
-195 -171 0
-195 -194 0
195 171 194 0
-196 168 0
-196 -195 0
196 -168 195 0
-197 -167 0
-197 -196 0
197 167 196 0
-198 164 0
-198 -197 0
198 -164 197 0
-199 -163 0
-199 -198 0
199 163 198 0
-200 160 0
-200 -199 0
200 -160 199 0
-201 -159 0
-201 -200 0
201 159 200 0
-202 156 0
-202 -201 0
202 -156 201 0
-203 -155 0
-203 -202 0
203 155 202 0
-204 152 0
-204 -203 0
204 -152 203 0
-205 -151 0
-205 -204 0
205 151 204 0
-206 148 0
-206 -205 0
206 -148 205 0
-207 -147 0
-207 -206 0
207 147 206 0
-208 144 0
-208 -207 0
208 -144 207 0
-209 -143 0
-209 -208 0
209 143 208 0
-210 209 -140 0
-210 -209 140 0
210 209 140 0
210 -209 -140 0
-211 27 0
-211 45 0
211 -27 -45 0
-212 28 0
-212 44 0
212 -28 -44 0
-213 211 0
-213 212 0
213 -211 -212 0
-214 -212 -211 0
-214 212 211 0
214 -212 211 0
214 212 -211 0
-215 -132 0
-215 -134 0
215 132 134 0
-216 214 0
-216 -215 0
216 -214 215 0
-217 215 -214 0
-217 -215 214 0
217 215 214 0
217 -215 -214 0
-218 29 0
-218 43 0
218 -29 -43 0
-219 217 0
-219 218 0
219 -217 -218 0
-220 -218 -217 0
-220 218 217 0
220 -218 217 0
220 218 -217 0
-221 137 0
-221 220 0
221 -137 -220 0
-222 -220 -137 0
-222 220 137 0
222 -220 137 0
222 220 -137 0
-223 30 0
-223 42 0
223 -30 -42 0
-224 222 0
-224 223 0
224 -222 -223 0
-225 -223 -222 0
-225 223 222 0
225 -223 222 0
225 223 -222 0
-226 4 0
-226 225 0
226 -4 -225 0
-227 -226 -210 0
-227 226 210 0
227 -226 210 0
227 226 -210 0
-228 207 -144 0
-228 -207 144 0
228 207 144 0
228 -207 -144 0
-229 5 0
-229 225 0
229 -5 -225 0
-230 228 0
-230 229 0
230 -228 -229 0
-231 -229 -228 0
-231 229 228 0
231 -229 228 0
231 229 -228 0
-232 205 -148 0
-232 -205 148 0
232 205 148 0
232 -205 -148 0
-233 6 0
-233 225 0
233 -6 -225 0
-234 232 0
-234 233 0
234 -232 -233 0
-235 -233 -232 0
-235 233 232 0
235 -233 232 0
235 233 -232 0
-236 203 -152 0
-236 -203 152 0
236 203 152 0
236 -203 -152 0
-237 7 0
-237 225 0
237 -7 -225 0
-238 236 0
-238 237 0
238 -236 -237 0
-239 -237 -236 0
-239 237 236 0
239 -237 236 0
239 237 -236 0
-240 201 -156 0
-240 -201 156 0
240 201 156 0
240 -201 -156 0
-241 8 0
-241 225 0
241 -8 -225 0
-242 240 0
-242 241 0
242 -240 -241 0
-243 -241 -240 0
-243 241 240 0
243 -241 240 0
243 241 -240 0
-244 199 -160 0
-244 -199 160 0
244 199 160 0
244 -199 -160 0
-245 9 0
-245 225 0
245 -9 -225 0
-246 244 0
-246 245 0
246 -244 -245 0
-247 -245 -244 0
-247 245 244 0
247 -245 244 0
247 245 -244 0
-248 197 -164 0
-248 -197 164 0
248 197 164 0
248 -197 -164 0
-249 10 0
-249 225 0
249 -10 -225 0
-250 248 0
-250 249 0
250 -248 -249 0
-251 -249 -248 0
-251 249 248 0
251 -249 248 0
251 249 -248 0
-252 195 -168 0
-252 -195 168 0
252 195 168 0
252 -195 -168 0
-253 11 0
-253 225 0
253 -11 -225 0
-254 252 0
-254 253 0
254 -252 -253 0
-255 -253 -252 0
-255 253 252 0
255 -253 252 0
255 253 -252 0
-256 193 -172 0
-256 -193 172 0
256 193 172 0
256 -193 -172 0
-257 12 0
-257 225 0
257 -12 -225 0
-258 256 0
-258 257 0
258 -256 -257 0
-259 -257 -256 0
-259 257 256 0
259 -257 256 0
259 257 -256 0
-260 191 -176 0
-260 -191 176 0
260 191 176 0
260 -191 -176 0
-261 13 0
-261 225 0
261 -13 -225 0
-262 260 0
-262 261 0
262 -260 -261 0
-263 -261 -260 0
-263 261 260 0
263 -261 260 0
263 261 -260 0
-264 189 -180 0
-264 -189 180 0
264 189 180 0
264 -189 -180 0
-265 14 0
-265 225 0
265 -14 -225 0
-266 264 0
-266 265 0
266 -264 -265 0
-267 -265 -264 0
-267 265 264 0
267 -265 264 0
267 265 -264 0
-268 -187 -184 0
-268 187 184 0
268 -187 184 0
268 187 -184 0
-269 15 0
-269 225 0
269 -15 -225 0
-270 268 0
-270 269 0
270 -268 -269 0
-271 267 0
-271 270 0
271 -267 -270 0
-272 -266 0
-272 -271 0
272 266 271 0
-273 263 0
-273 -272 0
273 -263 272 0
-274 -262 0
-274 -273 0
274 262 273 0
-275 259 0
-275 -274 0
275 -259 274 0
-276 -258 0
-276 -275 0
276 258 275 0
-277 255 0
-277 -276 0
277 -255 276 0
-278 -254 0
-278 -277 0
278 254 277 0
-279 251 0
-279 -278 0
279 -251 278 0
-280 -250 0
-280 -279 0
280 250 279 0
-281 247 0
-281 -280 0
281 -247 280 0
-282 -246 0
-282 -281 0
282 246 281 0
-283 243 0
-283 -282 0
283 -243 282 0
-284 -242 0
-284 -283 0
284 242 283 0
-285 239 0
-285 -284 0
285 -239 284 0
-286 -238 0
-286 -285 0
286 238 285 0
-287 235 0
-287 -286 0
287 -235 286 0
-288 -234 0
-288 -287 0
288 234 287 0
-289 231 0
-289 -288 0
289 -231 288 0
-290 -230 0
-290 -289 0
290 230 289 0
-291 290 -227 0
-291 -290 227 0
291 290 227 0
291 -290 -227 0
-292 26 0
-292 45 0
292 -26 -45 0
-293 27 0
-293 44 0
293 -27 -44 0
-294 292 0
-294 293 0
294 -292 -293 0
-295 -293 -292 0
-295 293 292 0
295 -293 292 0
295 293 -292 0
-296 -213 0
-296 -216 0
296 213 216 0
-297 295 0
-297 -296 0
297 -295 296 0
-298 296 -295 0
-298 -296 295 0
298 296 295 0
298 -296 -295 0
-299 28 0
-299 43 0
299 -28 -43 0
-300 298 0
-300 299 0
300 -298 -299 0
-301 -299 -298 0
-301 299 298 0
301 -299 298 0
301 299 -298 0
-302 -219 0
-302 -221 0
302 219 221 0
-303 301 0
-303 -302 0
303 -301 302 0
-304 302 -301 0
-304 -302 301 0
304 302 301 0
304 -302 -301 0
-305 29 0
-305 42 0
305 -29 -42 0
-306 304 0
-306 305 0
306 -304 -305 0
-307 -305 -304 0
-307 305 304 0
307 -305 304 0
307 305 -304 0
-308 224 0
-308 307 0
308 -224 -307 0
-309 -307 -224 0
-309 307 224 0
309 -307 224 0
309 307 -224 0
-310 30 0
-310 41 0
310 -30 -41 0
-311 309 0
-311 310 0
311 -309 -310 0
-312 -310 -309 0
-312 310 309 0
312 -310 309 0
312 310 -309 0
-313 5 0
-313 312 0
313 -5 -312 0
-314 -313 -291 0
-314 313 291 0
314 -313 291 0
314 313 -291 0
-315 288 -231 0
-315 -288 231 0
315 288 231 0
315 -288 -231 0
-316 6 0
-316 312 0
316 -6 -312 0
-317 315 0
-317 316 0
317 -315 -316 0
-318 -316 -315 0
-318 316 315 0
318 -316 315 0
318 316 -315 0
-319 286 -235 0
-319 -286 235 0
319 286 235 0
319 -286 -235 0
-320 7 0
-320 312 0
320 -7 -312 0
-321 319 0
-321 320 0
321 -319 -320 0
-322 -320 -319 0
-322 320 319 0
322 -320 319 0
322 320 -319 0
-323 284 -239 0
-323 -284 239 0
323 284 239 0
323 -284 -239 0
-324 8 0
-324 312 0
324 -8 -312 0
-325 323 0
-325 324 0
325 -323 -324 0
-326 -324 -323 0
-326 324 323 0
326 -324 323 0
326 324 -323 0
-327 282 -243 0
-327 -282 243 0
327 282 243 0
327 -282 -243 0
-328 9 0
-328 312 0
328 -9 -312 0
-329 327 0
-329 328 0
329 -327 -328 0
-330 -328 -327 0
-330 328 327 0
330 -328 327 0
330 328 -327 0
-331 280 -247 0
-331 -280 247 0
331 280 247 0
331 -280 -247 0
-332 10 0
-332 312 0
332 -10 -312 0
-333 331 0
-333 332 0
333 -331 -332 0
-334 -332 -331 0
-334 332 331 0
334 -332 331 0
334 332 -331 0
-335 278 -251 0
-335 -278 251 0
335 278 251 0
335 -278 -251 0
-336 11 0
-336 312 0
336 -11 -312 0
-337 335 0
-337 336 0
337 -335 -336 0
-338 -336 -335 0
-338 336 335 0
338 -336 335 0
338 336 -335 0
-339 276 -255 0
-339 -276 255 0
339 276 255 0
339 -276 -255 0
-340 12 0
-340 312 0
340 -12 -312 0
-341 339 0
-341 340 0
341 -339 -340 0
-342 -340 -339 0
-342 340 339 0
342 -340 339 0
342 340 -339 0
-343 274 -259 0
-343 -274 259 0
343 274 259 0
343 -274 -259 0
-344 13 0
-344 312 0
344 -13 -312 0
-345 343 0
-345 344 0
345 -343 -344 0
-346 -344 -343 0
-346 344 343 0
346 -344 343 0
346 344 -343 0
-347 272 -263 0
-347 -272 263 0
347 272 263 0
347 -272 -263 0
-348 14 0
-348 312 0
348 -14 -312 0
-349 347 0
-349 348 0
349 -347 -348 0
-350 -348 -347 0
-350 348 347 0
350 -348 347 0
350 348 -347 0
-351 -270 -267 0
-351 270 267 0
351 -270 267 0
351 270 -267 0
-352 15 0
-352 312 0
352 -15 -312 0
-353 351 0
-353 352 0
353 -351 -352 0
-354 350 0
-354 353 0
354 -350 -353 0
-355 -349 0
-355 -354 0
355 349 354 0
-356 346 0
-356 -355 0
356 -346 355 0
-357 -345 0
-357 -356 0
357 345 356 0
-358 342 0
-358 -357 0
358 -342 357 0
-359 -341 0
-359 -358 0
359 341 358 0
-360 338 0
-360 -359 0
360 -338 359 0
-361 -337 0
-361 -360 0
361 337 360 0
-362 334 0
-362 -361 0
362 -334 361 0
-363 -333 0
-363 -362 0
363 333 362 0
-364 330 0
-364 -363 0
364 -330 363 0
-365 -329 0
-365 -364 0
365 329 364 0
-366 326 0
-366 -365 0
366 -326 365 0
-367 -325 0
-367 -366 0
367 325 366 0
-368 322 0
-368 -367 0
368 -322 367 0
-369 -321 0
-369 -368 0
369 321 368 0
-370 318 0
-370 -369 0
370 -318 369 0
-371 -317 0
-371 -370 0
371 317 370 0
-372 371 -314 0
-372 -371 314 0
372 371 314 0
372 -371 -314 0
-373 25 0
-373 45 0
373 -25 -45 0
-374 26 0
-374 44 0
374 -26 -44 0
-375 373 0
-375 374 0
375 -373 -374 0
-376 -374 -373 0
-376 374 373 0
376 -374 373 0
376 374 -373 0
-377 -294 0
-377 -297 0
377 294 297 0
-378 376 0
-378 -377 0
378 -376 377 0
-379 377 -376 0
-379 -377 376 0
379 377 376 0
379 -377 -376 0
-380 27 0
-380 43 0
380 -27 -43 0
-381 379 0
-381 380 0
381 -379 -380 0
-382 -380 -379 0
-382 380 379 0
382 -380 379 0
382 380 -379 0
-383 -300 0
-383 -303 0
383 300 303 0
-384 382 0
-384 -383 0
384 -382 383 0
-385 383 -382 0
-385 -383 382 0
385 383 382 0
385 -383 -382 0
-386 28 0
-386 42 0
386 -28 -42 0
-387 385 0
-387 386 0
387 -385 -386 0
-388 -386 -385 0
-388 386 385 0
388 -386 385 0
388 386 -385 0
-389 -306 0
-389 -308 0
389 306 308 0
-390 388 0
-390 -389 0
390 -388 389 0
-391 389 -388 0
-391 -389 388 0
391 389 388 0
391 -389 -388 0
-392 29 0
-392 41 0
392 -29 -41 0
-393 391 0
-393 392 0
393 -391 -392 0
-394 -392 -391 0
-394 392 391 0
394 -392 391 0
394 392 -391 0
-395 311 0
-395 394 0
395 -311 -394 0
-396 -394 -311 0
-396 394 311 0
396 -394 311 0
396 394 -311 0
-397 30 0
-397 40 0
397 -30 -40 0
-398 396 0
-398 397 0
398 -396 -397 0
-399 -397 -396 0
-399 397 396 0
399 -397 396 0
399 397 -396 0
-400 6 0
-400 399 0
400 -6 -399 0
-401 -400 -372 0
-401 400 372 0
401 -400 372 0
401 400 -372 0
-402 369 -318 0
-402 -369 318 0
402 369 318 0
402 -369 -318 0
-403 7 0
-403 399 0
403 -7 -399 0
-404 402 0
-404 403 0
404 -402 -403 0
-405 -403 -402 0
-405 403 402 0
405 -403 402 0
405 403 -402 0
-406 367 -322 0
-406 -367 322 0
406 367 322 0
406 -367 -322 0
-407 8 0
-407 399 0
407 -8 -399 0
-408 406 0
-408 407 0
408 -406 -407 0
-409 -407 -406 0
-409 407 406 0
409 -407 406 0
409 407 -406 0
-410 365 -326 0
-410 -365 326 0
410 365 326 0
410 -365 -326 0
-411 9 0
-411 399 0
411 -9 -399 0
-412 410 0
-412 411 0
412 -410 -411 0
-413 -411 -410 0
-413 411 410 0
413 -411 410 0
413 411 -410 0
-414 363 -330 0
-414 -363 330 0
414 363 330 0
414 -363 -330 0
-415 10 0
-415 399 0
415 -10 -399 0
-416 414 0
-416 415 0
416 -414 -415 0
-417 -415 -414 0
-417 415 414 0
417 -415 414 0
417 415 -414 0
-418 361 -334 0
-418 -361 334 0
418 361 334 0
418 -361 -334 0
-419 11 0
-419 399 0
419 -11 -399 0
-420 418 0
-420 419 0
420 -418 -419 0
-421 -419 -418 0
-421 419 418 0
421 -419 418 0
421 419 -418 0
-422 359 -338 0
-422 -359 338 0
422 359 338 0
422 -359 -338 0
-423 12 0
-423 399 0
423 -12 -399 0
-424 422 0
-424 423 0
424 -422 -423 0
-425 -423 -422 0
-425 423 422 0
425 -423 422 0
425 423 -422 0
-426 357 -342 0
-426 -357 342 0
426 357 342 0
426 -357 -342 0
-427 13 0
-427 399 0
427 -13 -399 0
-428 426 0
-428 427 0
428 -426 -427 0
-429 -427 -426 0
-429 427 426 0
429 -427 426 0
429 427 -426 0
-430 355 -346 0
-430 -355 346 0
430 355 346 0
430 -355 -346 0
-431 14 0
-431 399 0
431 -14 -399 0
-432 430 0
-432 431 0
432 -430 -431 0
-433 -431 -430 0
-433 431 430 0
433 -431 430 0
433 431 -430 0
-434 -353 -350 0
-434 353 350 0
434 -353 350 0
434 353 -350 0
-435 15 0
-435 399 0
435 -15 -399 0
-436 434 0
-436 435 0
436 -434 -435 0
-437 433 0
-437 436 0
437 -433 -436 0
-438 -432 0
-438 -437 0
438 432 437 0
-439 429 0
-439 -438 0
439 -429 438 0
-440 -428 0
-440 -439 0
440 428 439 0
-441 425 0
-441 -440 0
441 -425 440 0
-442 -424 0
-442 -441 0
442 424 441 0
-443 421 0
-443 -442 0
443 -421 442 0
-444 -420 0
-444 -443 0
444 420 443 0
-445 417 0
-445 -444 0
445 -417 444 0
-446 -416 0
-446 -445 0
446 416 445 0
-447 413 0
-447 -446 0
447 -413 446 0
-448 -412 0
-448 -447 0
448 412 447 0
-449 409 0
-449 -448 0
449 -409 448 0
-450 -408 0
-450 -449 0
450 408 449 0
-451 405 0
-451 -450 0
451 -405 450 0
-452 -404 0
-452 -451 0
452 404 451 0
-453 452 -401 0
-453 -452 401 0
453 452 401 0
453 -452 -401 0
-454 24 0
-454 45 0
454 -24 -45 0
-455 25 0
-455 44 0
455 -25 -44 0
-456 454 0
-456 455 0
456 -454 -455 0
-457 -455 -454 0
-457 455 454 0
457 -455 454 0
457 455 -454 0
-458 -375 0
-458 -378 0
458 375 378 0
-459 457 0
-459 -458 0
459 -457 458 0
-460 458 -457 0
-460 -458 457 0
460 458 457 0
460 -458 -457 0
-461 26 0
-461 43 0
461 -26 -43 0
-462 460 0
-462 461 0
462 -460 -461 0
-463 -461 -460 0
-463 461 460 0
463 -461 460 0
463 461 -460 0
-464 -381 0
-464 -384 0
464 381 384 0
-465 463 0
-465 -464 0
465 -463 464 0
-466 464 -463 0
-466 -464 463 0
466 464 463 0
466 -464 -463 0
-467 27 0
-467 42 0
467 -27 -42 0
-468 466 0
-468 467 0
468 -466 -467 0
-469 -467 -466 0
-469 467 466 0
469 -467 466 0
469 467 -466 0
-470 -387 0
-470 -390 0
470 387 390 0
-471 469 0
-471 -470 0
471 -469 470 0
-472 470 -469 0
-472 -470 469 0
472 470 469 0
472 -470 -469 0
-473 28 0
-473 41 0
473 -28 -41 0
-474 472 0
-474 473 0
474 -472 -473 0
-475 -473 -472 0
-475 473 472 0
475 -473 472 0
475 473 -472 0
-476 -393 0
-476 -395 0
476 393 395 0
-477 475 0
-477 -476 0
477 -475 476 0
-478 476 -475 0
-478 -476 475 0
478 476 475 0
478 -476 -475 0
-479 29 0
-479 40 0
479 -29 -40 0
-480 478 0
-480 479 0
480 -478 -479 0
-481 -479 -478 0
-481 479 478 0
481 -479 478 0
481 479 -478 0
-482 398 0
-482 481 0
482 -398 -481 0
-483 -481 -398 0
-483 481 398 0
483 -481 398 0
483 481 -398 0
-484 30 0
-484 39 0
484 -30 -39 0
-485 483 0
-485 484 0
485 -483 -484 0
-486 -484 -483 0
-486 484 483 0
486 -484 483 0
486 484 -483 0
-487 7 0
-487 486 0
487 -7 -486 0
-488 -487 -453 0
-488 487 453 0
488 -487 453 0
488 487 -453 0
-489 450 -405 0
-489 -450 405 0
489 450 405 0
489 -450 -405 0
-490 8 0
-490 486 0
490 -8 -486 0
-491 489 0
-491 490 0
491 -489 -490 0
-492 -490 -489 0
-492 490 489 0
492 -490 489 0
492 490 -489 0
-493 448 -409 0
-493 -448 409 0
493 448 409 0
493 -448 -409 0
-494 9 0
-494 486 0
494 -9 -486 0
-495 493 0
-495 494 0
495 -493 -494 0
-496 -494 -493 0
-496 494 493 0
496 -494 493 0
496 494 -493 0
-497 446 -413 0
-497 -446 413 0
497 446 413 0
497 -446 -413 0
-498 10 0
-498 486 0
498 -10 -486 0
-499 497 0
-499 498 0
499 -497 -498 0
-500 -498 -497 0
-500 498 497 0
500 -498 497 0
500 498 -497 0
-501 444 -417 0
-501 -444 417 0
501 444 417 0
501 -444 -417 0
-502 11 0
-502 486 0
502 -11 -486 0
-503 501 0
-503 502 0
503 -501 -502 0
-504 -502 -501 0
-504 502 501 0
504 -502 501 0
504 502 -501 0
-505 442 -421 0
-505 -442 421 0
505 442 421 0
505 -442 -421 0
-506 12 0
-506 486 0
506 -12 -486 0
-507 505 0
-507 506 0
507 -505 -506 0
-508 -506 -505 0
-508 506 505 0
508 -506 505 0
508 506 -505 0
-509 440 -425 0
-509 -440 425 0
509 440 425 0
509 -440 -425 0
-510 13 0
-510 486 0
510 -13 -486 0
-511 509 0
-511 510 0
511 -509 -510 0
-512 -510 -509 0
-512 510 509 0
512 -510 509 0
512 510 -509 0
-513 438 -429 0
-513 -438 429 0
513 438 429 0
513 -438 -429 0
-514 14 0
-514 486 0
514 -14 -486 0
-515 513 0
-515 514 0
515 -513 -514 0
-516 -514 -513 0
-516 514 513 0
516 -514 513 0
516 514 -513 0
-517 -436 -433 0
-517 436 433 0
517 -436 433 0
517 436 -433 0
-518 15 0
-518 486 0
518 -15 -486 0
-519 517 0
-519 518 0
519 -517 -518 0
-520 516 0
-520 519 0
520 -516 -519 0
-521 -515 0
-521 -520 0
521 515 520 0
-522 512 0
-522 -521 0
522 -512 521 0
-523 -511 0
-523 -522 0
523 511 522 0
-524 508 0
-524 -523 0
524 -508 523 0
-525 -507 0
-525 -524 0
525 507 524 0
-526 504 0
-526 -525 0
526 -504 525 0
-527 -503 0
-527 -526 0
527 503 526 0
-528 500 0
-528 -527 0
528 -500 527 0
-529 -499 0
-529 -528 0
529 499 528 0
-530 496 0
-530 -529 0
530 -496 529 0
-531 -495 0
-531 -530 0
531 495 530 0
-532 492 0
-532 -531 0
532 -492 531 0
-533 -491 0
-533 -532 0
533 491 532 0
-534 533 -488 0
-534 -533 488 0
534 533 488 0
534 -533 -488 0
-535 23 0
-535 45 0
535 -23 -45 0
-536 24 0
-536 44 0
536 -24 -44 0
-537 535 0
-537 536 0
537 -535 -536 0
-538 -536 -535 0
-538 536 535 0
538 -536 535 0
538 536 -535 0
-539 -456 0
-539 -459 0
539 456 459 0
-540 538 0
-540 -539 0
540 -538 539 0
-541 539 -538 0
-541 -539 538 0
541 539 538 0
541 -539 -538 0
-542 25 0
-542 43 0
542 -25 -43 0
-543 541 0
-543 542 0
543 -541 -542 0
-544 -542 -541 0
-544 542 541 0
544 -542 541 0
544 542 -541 0
-545 -462 0
-545 -465 0
545 462 465 0
-546 544 0
-546 -545 0
546 -544 545 0
-547 545 -544 0
-547 -545 544 0
547 545 544 0
547 -545 -544 0
-548 26 0
-548 42 0
548 -26 -42 0
-549 547 0
-549 548 0
549 -547 -548 0
-550 -548 -547 0
-550 548 547 0
550 -548 547 0
550 548 -547 0
-551 -468 0
-551 -471 0
551 468 471 0
-552 550 0
-552 -551 0
552 -550 551 0
-553 551 -550 0
-553 -551 550 0
553 551 550 0
553 -551 -550 0
-554 27 0
-554 41 0
554 -27 -41 0
-555 553 0
-555 554 0
555 -553 -554 0
-556 -554 -553 0
-556 554 553 0
556 -554 553 0
556 554 -553 0
-557 -474 0
-557 -477 0
557 474 477 0
-558 556 0
-558 -557 0
558 -556 557 0
-559 557 -556 0
-559 -557 556 0
559 557 556 0
559 -557 -556 0
-560 28 0
-560 40 0
560 -28 -40 0
-561 559 0
-561 560 0
561 -559 -560 0
-562 -560 -559 0
-562 560 559 0
562 -560 559 0
562 560 -559 0
-563 -480 0
-563 -482 0
563 480 482 0
-564 562 0
-564 -563 0
564 -562 563 0
-565 563 -562 0
-565 -563 562 0
565 563 562 0
565 -563 -562 0
-566 29 0
-566 39 0
566 -29 -39 0
-567 565 0
-567 566 0
567 -565 -566 0
-568 -566 -565 0
-568 566 565 0
568 -566 565 0
568 566 -565 0
-569 485 0
-569 568 0
569 -485 -568 0
-570 -568 -485 0
-570 568 485 0
570 -568 485 0
570 568 -485 0
-571 30 0
-571 38 0
571 -30 -38 0
-572 570 0
-572 571 0
572 -570 -571 0
-573 -571 -570 0
-573 571 570 0
573 -571 570 0
573 571 -570 0
-574 8 0
-574 573 0
574 -8 -573 0
-575 -574 -534 0
-575 574 534 0
575 -574 534 0
575 574 -534 0
-576 531 -492 0
-576 -531 492 0
576 531 492 0
576 -531 -492 0
-577 9 0
-577 573 0
577 -9 -573 0
-578 576 0
-578 577 0
578 -576 -577 0
-579 -577 -576 0
-579 577 576 0
579 -577 576 0
579 577 -576 0
-580 529 -496 0
-580 -529 496 0
580 529 496 0
580 -529 -496 0
-581 10 0
-581 573 0
581 -10 -573 0
-582 580 0
-582 581 0
582 -580 -581 0
-583 -581 -580 0
-583 581 580 0
583 -581 580 0
583 581 -580 0
-584 527 -500 0
-584 -527 500 0
584 527 500 0
584 -527 -500 0
-585 11 0
-585 573 0
585 -11 -573 0
-586 584 0
-586 585 0
586 -584 -585 0
-587 -585 -584 0
-587 585 584 0
587 -585 584 0
587 585 -584 0
-588 525 -504 0
-588 -525 504 0
588 525 504 0
588 -525 -504 0
-589 12 0
-589 573 0
589 -12 -573 0
-590 588 0
-590 589 0
590 -588 -589 0
-591 -589 -588 0
-591 589 588 0
591 -589 588 0
591 589 -588 0
-592 523 -508 0
-592 -523 508 0
592 523 508 0
592 -523 -508 0
-593 13 0
-593 573 0
593 -13 -573 0
-594 592 0
-594 593 0
594 -592 -593 0
-595 -593 -592 0
-595 593 592 0
595 -593 592 0
595 593 -592 0
-596 521 -512 0
-596 -521 512 0
596 521 512 0
596 -521 -512 0
-597 14 0
-597 573 0
597 -14 -573 0
-598 596 0
-598 597 0
598 -596 -597 0
-599 -597 -596 0
-599 597 596 0
599 -597 596 0
599 597 -596 0
-600 -519 -516 0
-600 519 516 0
600 -519 516 0
600 519 -516 0
-601 15 0
-601 573 0
601 -15 -573 0
-602 600 0
-602 601 0
602 -600 -601 0
-603 599 0
-603 602 0
603 -599 -602 0
-604 -598 0
-604 -603 0
604 598 603 0
-605 595 0
-605 -604 0
605 -595 604 0
-606 -594 0
-606 -605 0
606 594 605 0
-607 591 0
-607 -606 0
607 -591 606 0
-608 -590 0
-608 -607 0
608 590 607 0
-609 587 0
-609 -608 0
609 -587 608 0
-610 -586 0
-610 -609 0
610 586 609 0
-611 583 0
-611 -610 0
611 -583 610 0
-612 -582 0
-612 -611 0
612 582 611 0
-613 579 0
-613 -612 0
613 -579 612 0
-614 -578 0
-614 -613 0
614 578 613 0
-615 614 -575 0
-615 -614 575 0
615 614 575 0
615 -614 -575 0
-616 22 0
-616 45 0
616 -22 -45 0
-617 23 0
-617 44 0
617 -23 -44 0
-618 616 0
-618 617 0
618 -616 -617 0
-619 -617 -616 0
-619 617 616 0
619 -617 616 0
619 617 -616 0
-620 -537 0
-620 -540 0
620 537 540 0
-621 619 0
-621 -620 0
621 -619 620 0
-622 620 -619 0
-622 -620 619 0
622 620 619 0
622 -620 -619 0
-623 24 0
-623 43 0
623 -24 -43 0
-624 622 0
-624 623 0
624 -622 -623 0
-625 -623 -622 0
-625 623 622 0
625 -623 622 0
625 623 -622 0
-626 -543 0
-626 -546 0
626 543 546 0
-627 625 0
-627 -626 0
627 -625 626 0
-628 626 -625 0
-628 -626 625 0
628 626 625 0
628 -626 -625 0
-629 25 0
-629 42 0
629 -25 -42 0
-630 628 0
-630 629 0
630 -628 -629 0
-631 -629 -628 0
-631 629 628 0
631 -629 628 0
631 629 -628 0
-632 -549 0
-632 -552 0
632 549 552 0
-633 631 0
-633 -632 0
633 -631 632 0
-634 632 -631 0
-634 -632 631 0
634 632 631 0
634 -632 -631 0
-635 26 0
-635 41 0
635 -26 -41 0
-636 634 0
-636 635 0
636 -634 -635 0
-637 -635 -634 0
-637 635 634 0
637 -635 634 0
637 635 -634 0
-638 -555 0
-638 -558 0
638 555 558 0
-639 637 0
-639 -638 0
639 -637 638 0
-640 638 -637 0
-640 -638 637 0
640 638 637 0
640 -638 -637 0
-641 27 0
-641 40 0
641 -27 -40 0
-642 640 0
-642 641 0
642 -640 -641 0
-643 -641 -640 0
-643 641 640 0
643 -641 640 0
643 641 -640 0
-644 -561 0
-644 -564 0
644 561 564 0
-645 643 0
-645 -644 0
645 -643 644 0
-646 644 -643 0
-646 -644 643 0
646 644 643 0
646 -644 -643 0
-647 28 0
-647 39 0
647 -28 -39 0
-648 646 0
-648 647 0
648 -646 -647 0
-649 -647 -646 0
-649 647 646 0
649 -647 646 0
649 647 -646 0
-650 -567 0
-650 -569 0
650 567 569 0
-651 649 0
-651 -650 0
651 -649 650 0
-652 650 -649 0
-652 -650 649 0
652 650 649 0
652 -650 -649 0
-653 29 0
-653 38 0
653 -29 -38 0
-654 652 0
-654 653 0
654 -652 -653 0
-655 -653 -652 0
-655 653 652 0
655 -653 652 0
655 653 -652 0
-656 572 0
-656 655 0
656 -572 -655 0
-657 -655 -572 0
-657 655 572 0
657 -655 572 0
657 655 -572 0
-658 30 0
-658 37 0
658 -30 -37 0
-659 657 0
-659 658 0
659 -657 -658 0
-660 -658 -657 0
-660 658 657 0
660 -658 657 0
660 658 -657 0
-661 9 0
-661 660 0
661 -9 -660 0
-662 -661 -615 0
-662 661 615 0
662 -661 615 0
662 661 -615 0
-663 612 -579 0
-663 -612 579 0
663 612 579 0
663 -612 -579 0
-664 10 0
-664 660 0
664 -10 -660 0
-665 663 0
-665 664 0
665 -663 -664 0
-666 -664 -663 0
-666 664 663 0
666 -664 663 0
666 664 -663 0
-667 610 -583 0
-667 -610 583 0
667 610 583 0
667 -610 -583 0
-668 11 0
-668 660 0
668 -11 -660 0
-669 667 0
-669 668 0
669 -667 -668 0
-670 -668 -667 0
-670 668 667 0
670 -668 667 0
670 668 -667 0
-671 608 -587 0
-671 -608 587 0
671 608 587 0
671 -608 -587 0
-672 12 0
-672 660 0
672 -12 -660 0
-673 671 0
-673 672 0
673 -671 -672 0
-674 -672 -671 0
-674 672 671 0
674 -672 671 0
674 672 -671 0
-675 606 -591 0
-675 -606 591 0
675 606 591 0
675 -606 -591 0
-676 13 0
-676 660 0
676 -13 -660 0
-677 675 0
-677 676 0
677 -675 -676 0
-678 -676 -675 0
-678 676 675 0
678 -676 675 0
678 676 -675 0
-679 604 -595 0
-679 -604 595 0
679 604 595 0
679 -604 -595 0
-680 14 0
-680 660 0
680 -14 -660 0
-681 679 0
-681 680 0
681 -679 -680 0
-682 -680 -679 0
-682 680 679 0
682 -680 679 0
682 680 -679 0
-683 -602 -599 0
-683 602 599 0
683 -602 599 0
683 602 -599 0
-684 15 0
-684 660 0
684 -15 -660 0
-685 683 0
-685 684 0
685 -683 -684 0
-686 682 0
-686 685 0
686 -682 -685 0
-687 -681 0
-687 -686 0
687 681 686 0
-688 678 0
-688 -687 0
688 -678 687 0
-689 -677 0
-689 -688 0
689 677 688 0
-690 674 0
-690 -689 0
690 -674 689 0
-691 -673 0
-691 -690 0
691 673 690 0
-692 670 0
-692 -691 0
692 -670 691 0
-693 -669 0
-693 -692 0
693 669 692 0
-694 666 0
-694 -693 0
694 -666 693 0
-695 -665 0
-695 -694 0
695 665 694 0
-696 695 -662 0
-696 -695 662 0
696 695 662 0
696 -695 -662 0
-697 21 0
-697 45 0
697 -21 -45 0
-698 22 0
-698 44 0
698 -22 -44 0
-699 697 0
-699 698 0
699 -697 -698 0
-700 -698 -697 0
-700 698 697 0
700 -698 697 0
700 698 -697 0
-701 -618 0
-701 -621 0
701 618 621 0
-702 700 0
-702 -701 0
702 -700 701 0
-703 701 -700 0
-703 -701 700 0
703 701 700 0
703 -701 -700 0
-704 23 0
-704 43 0
704 -23 -43 0
-705 703 0
-705 704 0
705 -703 -704 0
-706 -704 -703 0
-706 704 703 0
706 -704 703 0
706 704 -703 0
-707 -624 0
-707 -627 0
707 624 627 0
-708 706 0
-708 -707 0
708 -706 707 0
-709 707 -706 0
-709 -707 706 0
709 707 706 0
709 -707 -706 0
-710 24 0
-710 42 0
710 -24 -42 0
-711 709 0
-711 710 0
711 -709 -710 0
-712 -710 -709 0
-712 710 709 0
712 -710 709 0
712 710 -709 0
-713 -630 0
-713 -633 0
713 630 633 0
-714 712 0
-714 -713 0
714 -712 713 0
-715 713 -712 0
-715 -713 712 0
715 713 712 0
715 -713 -712 0
-716 25 0
-716 41 0
716 -25 -41 0
-717 715 0
-717 716 0
717 -715 -716 0
-718 -716 -715 0
-718 716 715 0
718 -716 715 0
718 716 -715 0
-719 -636 0
-719 -639 0
719 636 639 0
-720 718 0
-720 -719 0
720 -718 719 0
-721 719 -718 0
-721 -719 718 0
721 719 718 0
721 -719 -718 0
-722 26 0
-722 40 0
722 -26 -40 0
-723 721 0
-723 722 0
723 -721 -722 0
-724 -722 -721 0
-724 722 721 0
724 -722 721 0
724 722 -721 0
-725 -642 0
-725 -645 0
725 642 645 0
-726 724 0
-726 -725 0
726 -724 725 0
-727 725 -724 0
-727 -725 724 0
727 725 724 0
727 -725 -724 0
-728 27 0
-728 39 0
728 -27 -39 0
-729 727 0
-729 728 0
729 -727 -728 0
-730 -728 -727 0
-730 728 727 0
730 -728 727 0
730 728 -727 0
-731 -648 0
-731 -651 0
731 648 651 0
-732 730 0
-732 -731 0
732 -730 731 0
-733 731 -730 0
-733 -731 730 0
733 731 730 0
733 -731 -730 0
-734 28 0
-734 38 0
734 -28 -38 0
-735 733 0
-735 734 0
735 -733 -734 0
-736 -734 -733 0
-736 734 733 0
736 -734 733 0
736 734 -733 0
-737 -654 0
-737 -656 0
737 654 656 0
-738 736 0
-738 -737 0
738 -736 737 0
-739 737 -736 0
-739 -737 736 0
739 737 736 0
739 -737 -736 0
-740 29 0
-740 37 0
740 -29 -37 0
-741 739 0
-741 740 0
741 -739 -740 0
-742 -740 -739 0
-742 740 739 0
742 -740 739 0
742 740 -739 0
-743 659 0
-743 742 0
743 -659 -742 0
-744 -742 -659 0
-744 742 659 0
744 -742 659 0
744 742 -659 0
-745 30 0
-745 36 0
745 -30 -36 0
-746 744 0
-746 745 0
746 -744 -745 0
-747 -745 -744 0
-747 745 744 0
747 -745 744 0
747 745 -744 0
-748 10 0
-748 747 0
748 -10 -747 0
-749 -748 -696 0
-749 748 696 0
749 -748 696 0
749 748 -696 0
-750 693 -666 0
-750 -693 666 0
750 693 666 0
750 -693 -666 0
-751 11 0
-751 747 0
751 -11 -747 0
-752 750 0
-752 751 0
752 -750 -751 0
-753 -751 -750 0
-753 751 750 0
753 -751 750 0
753 751 -750 0
-754 691 -670 0
-754 -691 670 0
754 691 670 0
754 -691 -670 0
-755 12 0
-755 747 0
755 -12 -747 0
-756 754 0
-756 755 0
756 -754 -755 0
-757 -755 -754 0
-757 755 754 0
757 -755 754 0
757 755 -754 0
-758 689 -674 0
-758 -689 674 0
758 689 674 0
758 -689 -674 0
-759 13 0
-759 747 0
759 -13 -747 0
-760 758 0
-760 759 0
760 -758 -759 0
-761 -759 -758 0
-761 759 758 0
761 -759 758 0
761 759 -758 0
-762 687 -678 0
-762 -687 678 0
762 687 678 0
762 -687 -678 0
-763 14 0
-763 747 0
763 -14 -747 0
-764 762 0
-764 763 0
764 -762 -763 0
-765 -763 -762 0
-765 763 762 0
765 -763 762 0
765 763 -762 0
-766 -685 -682 0
-766 685 682 0
766 -685 682 0
766 685 -682 0
-767 15 0
-767 747 0
767 -15 -747 0
-768 766 0
-768 767 0
768 -766 -767 0
-769 765 0
-769 768 0
769 -765 -768 0
-770 -764 0
-770 -769 0
770 764 769 0
-771 761 0
-771 -770 0
771 -761 770 0
-772 -760 0
-772 -771 0
772 760 771 0
-773 757 0
-773 -772 0
773 -757 772 0
-774 -756 0
-774 -773 0
774 756 773 0
-775 753 0
-775 -774 0
775 -753 774 0
-776 -752 0
-776 -775 0
776 752 775 0
-777 776 -749 0
-777 -776 749 0
777 776 749 0
777 -776 -749 0
-778 20 0
-778 45 0
778 -20 -45 0
-779 21 0
-779 44 0
779 -21 -44 0
-780 778 0
-780 779 0
780 -778 -779 0
-781 -779 -778 0
-781 779 778 0
781 -779 778 0
781 779 -778 0
-782 -699 0
-782 -702 0
782 699 702 0
-783 781 0
-783 -782 0
783 -781 782 0
-784 782 -781 0
-784 -782 781 0
784 782 781 0
784 -782 -781 0
-785 22 0
-785 43 0
785 -22 -43 0
-786 784 0
-786 785 0
786 -784 -785 0
-787 -785 -784 0
-787 785 784 0
787 -785 784 0
787 785 -784 0
-788 -705 0
-788 -708 0
788 705 708 0
-789 787 0
-789 -788 0
789 -787 788 0
-790 788 -787 0
-790 -788 787 0
790 788 787 0
790 -788 -787 0
-791 23 0
-791 42 0
791 -23 -42 0
-792 790 0
-792 791 0
792 -790 -791 0
-793 -791 -790 0
-793 791 790 0
793 -791 790 0
793 791 -790 0
-794 -711 0
-794 -714 0
794 711 714 0
-795 793 0
-795 -794 0
795 -793 794 0
-796 794 -793 0
-796 -794 793 0
796 794 793 0
796 -794 -793 0
-797 24 0
-797 41 0
797 -24 -41 0
-798 796 0
-798 797 0
798 -796 -797 0
-799 -797 -796 0
-799 797 796 0
799 -797 796 0
799 797 -796 0
-800 -717 0
-800 -720 0
800 717 720 0
-801 799 0
-801 -800 0
801 -799 800 0
-802 800 -799 0
-802 -800 799 0
802 800 799 0
802 -800 -799 0
-803 25 0
-803 40 0
803 -25 -40 0
-804 802 0
-804 803 0
804 -802 -803 0
-805 -803 -802 0
-805 803 802 0
805 -803 802 0
805 803 -802 0
-806 -723 0
-806 -726 0
806 723 726 0
-807 805 0
-807 -806 0
807 -805 806 0
-808 806 -805 0
-808 -806 805 0
808 806 805 0
808 -806 -805 0
-809 26 0
-809 39 0
809 -26 -39 0
-810 808 0
-810 809 0
810 -808 -809 0
-811 -809 -808 0
-811 809 808 0
811 -809 808 0
811 809 -808 0
-812 -729 0
-812 -732 0
812 729 732 0
-813 811 0
-813 -812 0
813 -811 812 0
-814 812 -811 0
-814 -812 811 0
814 812 811 0
814 -812 -811 0
-815 27 0
-815 38 0
815 -27 -38 0
-816 814 0
-816 815 0
816 -814 -815 0
-817 -815 -814 0
-817 815 814 0
817 -815 814 0
817 815 -814 0
-818 -735 0
-818 -738 0
818 735 738 0
-819 817 0
-819 -818 0
819 -817 818 0
-820 818 -817 0
-820 -818 817 0
820 818 817 0
820 -818 -817 0
-821 28 0
-821 37 0
821 -28 -37 0
-822 820 0
-822 821 0
822 -820 -821 0
-823 -821 -820 0
-823 821 820 0
823 -821 820 0
823 821 -820 0
-824 -741 0
-824 -743 0
824 741 743 0
-825 823 0
-825 -824 0
825 -823 824 0
-826 824 -823 0
-826 -824 823 0
826 824 823 0
826 -824 -823 0
-827 29 0
-827 36 0
827 -29 -36 0
-828 826 0
-828 827 0
828 -826 -827 0
-829 -827 -826 0
-829 827 826 0
829 -827 826 0
829 827 -826 0
-830 746 0
-830 829 0
830 -746 -829 0
-831 -829 -746 0
-831 829 746 0
831 -829 746 0
831 829 -746 0
-832 30 0
-832 35 0
832 -30 -35 0
-833 831 0
-833 832 0
833 -831 -832 0
-834 -832 -831 0
-834 832 831 0
834 -832 831 0
834 832 -831 0
-835 11 0
-835 834 0
835 -11 -834 0
-836 -835 -777 0
-836 835 777 0
836 -835 777 0
836 835 -777 0
-837 774 -753 0
-837 -774 753 0
837 774 753 0
837 -774 -753 0
-838 12 0
-838 834 0
838 -12 -834 0
-839 837 0
-839 838 0
839 -837 -838 0
-840 -838 -837 0
-840 838 837 0
840 -838 837 0
840 838 -837 0
-841 772 -757 0
-841 -772 757 0
841 772 757 0
841 -772 -757 0
-842 13 0
-842 834 0
842 -13 -834 0
-843 841 0
-843 842 0
843 -841 -842 0
-844 -842 -841 0
-844 842 841 0
844 -842 841 0
844 842 -841 0
-845 770 -761 0
-845 -770 761 0
845 770 761 0
845 -770 -761 0
-846 14 0
-846 834 0
846 -14 -834 0
-847 845 0
-847 846 0
847 -845 -846 0
-848 -846 -845 0
-848 846 845 0
848 -846 845 0
848 846 -845 0
-849 -768 -765 0
-849 768 765 0
849 -768 765 0
849 768 -765 0
-850 15 0
-850 834 0
850 -15 -834 0
-851 849 0
-851 850 0
851 -849 -850 0
-852 848 0
-852 851 0
852 -848 -851 0
-853 -847 0
-853 -852 0
853 847 852 0
-854 844 0
-854 -853 0
854 -844 853 0
-855 -843 0
-855 -854 0
855 843 854 0
-856 840 0
-856 -855 0
856 -840 855 0
-857 -839 0
-857 -856 0
857 839 856 0
-858 857 -836 0
-858 -857 836 0
858 857 836 0
858 -857 -836 0
-859 19 0
-859 45 0
859 -19 -45 0
-860 20 0
-860 44 0
860 -20 -44 0
-861 859 0
-861 860 0
861 -859 -860 0
-862 -860 -859 0
-862 860 859 0
862 -860 859 0
862 860 -859 0
-863 -780 0
-863 -783 0
863 780 783 0
-864 862 0
-864 -863 0
864 -862 863 0
-865 863 -862 0
-865 -863 862 0
865 863 862 0
865 -863 -862 0
-866 21 0
-866 43 0
866 -21 -43 0
-867 865 0
-867 866 0
867 -865 -866 0
-868 -866 -865 0
-868 866 865 0
868 -866 865 0
868 866 -865 0
-869 -786 0
-869 -789 0
869 786 789 0
-870 868 0
-870 -869 0
870 -868 869 0
-871 869 -868 0
-871 -869 868 0
871 869 868 0
871 -869 -868 0
-872 22 0
-872 42 0
872 -22 -42 0
-873 871 0
-873 872 0
873 -871 -872 0
-874 -872 -871 0
-874 872 871 0
874 -872 871 0
874 872 -871 0
-875 -792 0
-875 -795 0
875 792 795 0
-876 874 0
-876 -875 0
876 -874 875 0
-877 875 -874 0
-877 -875 874 0
877 875 874 0
877 -875 -874 0
-878 23 0
-878 41 0
878 -23 -41 0
-879 877 0
-879 878 0
879 -877 -878 0
-880 -878 -877 0
-880 878 877 0
880 -878 877 0
880 878 -877 0
-881 -798 0
-881 -801 0
881 798 801 0
-882 880 0
-882 -881 0
882 -880 881 0
-883 881 -880 0
-883 -881 880 0
883 881 880 0
883 -881 -880 0
-884 24 0
-884 40 0
884 -24 -40 0
-885 883 0
-885 884 0
885 -883 -884 0
-886 -884 -883 0
-886 884 883 0
886 -884 883 0
886 884 -883 0
-887 -804 0
-887 -807 0
887 804 807 0
-888 886 0
-888 -887 0
888 -886 887 0
-889 887 -886 0
-889 -887 886 0
889 887 886 0
889 -887 -886 0
-890 25 0
-890 39 0
890 -25 -39 0
-891 889 0
-891 890 0
891 -889 -890 0
-892 -890 -889 0
-892 890 889 0
892 -890 889 0
892 890 -889 0
-893 -810 0
-893 -813 0
893 810 813 0
-894 892 0
-894 -893 0
894 -892 893 0
-895 893 -892 0
-895 -893 892 0
895 893 892 0
895 -893 -892 0
-896 26 0
-896 38 0
896 -26 -38 0
-897 895 0
-897 896 0
897 -895 -896 0
-898 -896 -895 0
-898 896 895 0
898 -896 895 0
898 896 -895 0
-899 -816 0
-899 -819 0
899 816 819 0
-900 898 0
-900 -899 0
900 -898 899 0
-901 899 -898 0
-901 -899 898 0
901 899 898 0
901 -899 -898 0
-902 27 0
-902 37 0
902 -27 -37 0
-903 901 0
-903 902 0
903 -901 -902 0
-904 -902 -901 0
-904 902 901 0
904 -902 901 0
904 902 -901 0
-905 -822 0
-905 -825 0
905 822 825 0
-906 904 0
-906 -905 0
906 -904 905 0
-907 905 -904 0
-907 -905 904 0
907 905 904 0
907 -905 -904 0
-908 28 0
-908 36 0
908 -28 -36 0
-909 907 0
-909 908 0
909 -907 -908 0
-910 -908 -907 0
-910 908 907 0
910 -908 907 0
910 908 -907 0
-911 -828 0
-911 -830 0
911 828 830 0
-912 910 0
-912 -911 0
912 -910 911 0
-913 911 -910 0
-913 -911 910 0
913 911 910 0
913 -911 -910 0
-914 29 0
-914 35 0
914 -29 -35 0
-915 913 0
-915 914 0
915 -913 -914 0
-916 -914 -913 0
-916 914 913 0
916 -914 913 0
916 914 -913 0
-917 833 0
-917 916 0
917 -833 -916 0
-918 -916 -833 0
-918 916 833 0
918 -916 833 0
918 916 -833 0
-919 30 0
-919 34 0
919 -30 -34 0
-920 918 0
-920 919 0
920 -918 -919 0
-921 -919 -918 0
-921 919 918 0
921 -919 918 0
921 919 -918 0
-922 12 0
-922 921 0
922 -12 -921 0
-923 -922 -858 0
-923 922 858 0
923 -922 858 0
923 922 -858 0
-924 855 -840 0
-924 -855 840 0
924 855 840 0
924 -855 -840 0
-925 13 0
-925 921 0
925 -13 -921 0
-926 924 0
-926 925 0
926 -924 -925 0
-927 -925 -924 0
-927 925 924 0
927 -925 924 0
927 925 -924 0
-928 853 -844 0
-928 -853 844 0
928 853 844 0
928 -853 -844 0
-929 14 0
-929 921 0
929 -14 -921 0
-930 928 0
-930 929 0
930 -928 -929 0
-931 -929 -928 0
-931 929 928 0
931 -929 928 0
931 929 -928 0
-932 -851 -848 0
-932 851 848 0
932 -851 848 0
932 851 -848 0
-933 15 0
-933 921 0
933 -15 -921 0
-934 932 0
-934 933 0
934 -932 -933 0
-935 931 0
-935 934 0
935 -931 -934 0
-936 -930 0
-936 -935 0
936 930 935 0
-937 927 0
-937 -936 0
937 -927 936 0
-938 -926 0
-938 -937 0
938 926 937 0
-939 938 -923 0
-939 -938 923 0
939 938 923 0
939 -938 -923 0
-940 18 0
-940 45 0
940 -18 -45 0
-941 19 0
-941 44 0
941 -19 -44 0
-942 940 0
-942 941 0
942 -940 -941 0
-943 -941 -940 0
-943 941 940 0
943 -941 940 0
943 941 -940 0
-944 -861 0
-944 -864 0
944 861 864 0
-945 943 0
-945 -944 0
945 -943 944 0
-946 944 -943 0
-946 -944 943 0
946 944 943 0
946 -944 -943 0
-947 20 0
-947 43 0
947 -20 -43 0
-948 946 0
-948 947 0
948 -946 -947 0
-949 -947 -946 0
-949 947 946 0
949 -947 946 0
949 947 -946 0
-950 -867 0
-950 -870 0
950 867 870 0
-951 949 0
-951 -950 0
951 -949 950 0
-952 950 -949 0
-952 -950 949 0
952 950 949 0
952 -950 -949 0
-953 21 0
-953 42 0
953 -21 -42 0
-954 952 0
-954 953 0
954 -952 -953 0
-955 -953 -952 0
-955 953 952 0
955 -953 952 0
955 953 -952 0
-956 -873 0
-956 -876 0
956 873 876 0
-957 955 0
-957 -956 0
957 -955 956 0
-958 956 -955 0
-958 -956 955 0
958 956 955 0
958 -956 -955 0
-959 22 0
-959 41 0
959 -22 -41 0
-960 958 0
-960 959 0
960 -958 -959 0
-961 -959 -958 0
-961 959 958 0
961 -959 958 0
961 959 -958 0
-962 -879 0
-962 -882 0
962 879 882 0
-963 961 0
-963 -962 0
963 -961 962 0
-964 962 -961 0
-964 -962 961 0
964 962 961 0
964 -962 -961 0
-965 23 0
-965 40 0
965 -23 -40 0
-966 964 0
-966 965 0
966 -964 -965 0
-967 -965 -964 0
-967 965 964 0
967 -965 964 0
967 965 -964 0
-968 -885 0
-968 -888 0
968 885 888 0
-969 967 0
-969 -968 0
969 -967 968 0
-970 968 -967 0
-970 -968 967 0
970 968 967 0
970 -968 -967 0
-971 24 0
-971 39 0
971 -24 -39 0
-972 970 0
-972 971 0
972 -970 -971 0
-973 -971 -970 0
-973 971 970 0
973 -971 970 0
973 971 -970 0
-974 -891 0
-974 -894 0
974 891 894 0
-975 973 0
-975 -974 0
975 -973 974 0
-976 974 -973 0
-976 -974 973 0
976 974 973 0
976 -974 -973 0
-977 25 0
-977 38 0
977 -25 -38 0
-978 976 0
-978 977 0
978 -976 -977 0
-979 -977 -976 0
-979 977 976 0
979 -977 976 0
979 977 -976 0
-980 -897 0
-980 -900 0
980 897 900 0
-981 979 0
-981 -980 0
981 -979 980 0
-982 980 -979 0
-982 -980 979 0
982 980 979 0
982 -980 -979 0
-983 26 0
-983 37 0
983 -26 -37 0
-984 982 0
-984 983 0
984 -982 -983 0
-985 -983 -982 0
-985 983 982 0
985 -983 982 0
985 983 -982 0
-986 -903 0
-986 -906 0
986 903 906 0
-987 985 0
-987 -986 0
987 -985 986 0
-988 986 -985 0
-988 -986 985 0
988 986 985 0
988 -986 -985 0
-989 27 0
-989 36 0
989 -27 -36 0
-990 988 0
-990 989 0
990 -988 -989 0
-991 -989 -988 0
-991 989 988 0
991 -989 988 0
991 989 -988 0
-992 -909 0
-992 -912 0
992 909 912 0
-993 991 0
-993 -992 0
993 -991 992 0
-994 992 -991 0
-994 -992 991 0
994 992 991 0
994 -992 -991 0
-995 28 0
-995 35 0
995 -28 -35 0
-996 994 0
-996 995 0
996 -994 -995 0
-997 -995 -994 0
-997 995 994 0
997 -995 994 0
997 995 -994 0
-998 -915 0
-998 -917 0
998 915 917 0
-999 997 0
-999 -998 0
999 -997 998 0
-1000 998 -997 0
-1000 -998 997 0
1000 998 997 0
1000 -998 -997 0
-1001 29 0
-1001 34 0
1001 -29 -34 0
-1002 1000 0
-1002 1001 0
1002 -1000 -1001 0
-1003 -1001 -1000 0
-1003 1001 1000 0
1003 -1001 1000 0
1003 1001 -1000 0
-1004 920 0
-1004 1003 0
1004 -920 -1003 0
-1005 -1003 -920 0
-1005 1003 920 0
1005 -1003 920 0
1005 1003 -920 0
-1006 30 0
-1006 33 0
1006 -30 -33 0
-1007 1005 0
-1007 1006 0
1007 -1005 -1006 0
-1008 -1006 -1005 0
-1008 1006 1005 0
1008 -1006 1005 0
1008 1006 -1005 0
-1009 13 0
-1009 1008 0
1009 -13 -1008 0
-1010 -1009 -939 0
-1010 1009 939 0
1010 -1009 939 0
1010 1009 -939 0
-1011 936 -927 0
-1011 -936 927 0
1011 936 927 0
1011 -936 -927 0
-1012 14 0
-1012 1008 0
1012 -14 -1008 0
-1013 1011 0
-1013 1012 0
1013 -1011 -1012 0
-1014 -1012 -1011 0
-1014 1012 1011 0
1014 -1012 1011 0
1014 1012 -1011 0
-1015 -934 -931 0
-1015 934 931 0
1015 -934 931 0
1015 934 -931 0
-1016 15 0
-1016 1008 0
1016 -15 -1008 0
-1017 1015 0
-1017 1016 0
1017 -1015 -1016 0
-1018 1014 0
-1018 1017 0
1018 -1014 -1017 0
-1019 -1013 0
-1019 -1018 0
1019 1013 1018 0
-1020 1019 -1010 0
-1020 -1019 1010 0
1020 1019 1010 0
1020 -1019 -1010 0
-1021 17 0
-1021 45 0
1021 -17 -45 0
-1022 18 0
-1022 44 0
1022 -18 -44 0
-1023 1021 0
-1023 1022 0
1023 -1021 -1022 0
-1024 -1022 -1021 0
-1024 1022 1021 0
1024 -1022 1021 0
1024 1022 -1021 0
-1025 -942 0
-1025 -945 0
1025 942 945 0
-1026 1024 0
-1026 -1025 0
1026 -1024 1025 0
-1027 1025 -1024 0
-1027 -1025 1024 0
1027 1025 1024 0
1027 -1025 -1024 0
-1028 19 0
-1028 43 0
1028 -19 -43 0
-1029 1027 0
-1029 1028 0
1029 -1027 -1028 0
-1030 -1028 -1027 0
-1030 1028 1027 0
1030 -1028 1027 0
1030 1028 -1027 0
-1031 -948 0
-1031 -951 0
1031 948 951 0
-1032 1030 0
-1032 -1031 0
1032 -1030 1031 0
-1033 1031 -1030 0
-1033 -1031 1030 0
1033 1031 1030 0
1033 -1031 -1030 0
-1034 20 0
-1034 42 0
1034 -20 -42 0
-1035 1033 0
-1035 1034 0
1035 -1033 -1034 0
-1036 -1034 -1033 0
-1036 1034 1033 0
1036 -1034 1033 0
1036 1034 -1033 0
-1037 -954 0
-1037 -957 0
1037 954 957 0
-1038 1036 0
-1038 -1037 0
1038 -1036 1037 0
-1039 1037 -1036 0
-1039 -1037 1036 0
1039 1037 1036 0
1039 -1037 -1036 0
-1040 21 0
-1040 41 0
1040 -21 -41 0
-1041 1039 0
-1041 1040 0
1041 -1039 -1040 0
-1042 -1040 -1039 0
-1042 1040 1039 0
1042 -1040 1039 0
1042 1040 -1039 0
-1043 -960 0
-1043 -963 0
1043 960 963 0
-1044 1042 0
-1044 -1043 0
1044 -1042 1043 0
-1045 1043 -1042 0
-1045 -1043 1042 0
1045 1043 1042 0
1045 -1043 -1042 0
-1046 22 0
-1046 40 0
1046 -22 -40 0
-1047 1045 0
-1047 1046 0
1047 -1045 -1046 0
-1048 -1046 -1045 0
-1048 1046 1045 0
1048 -1046 1045 0
1048 1046 -1045 0
-1049 -966 0
-1049 -969 0
1049 966 969 0
-1050 1048 0
-1050 -1049 0
1050 -1048 1049 0
-1051 1049 -1048 0
-1051 -1049 1048 0
1051 1049 1048 0
1051 -1049 -1048 0
-1052 23 0
-1052 39 0
1052 -23 -39 0
-1053 1051 0
-1053 1052 0
1053 -1051 -1052 0
-1054 -1052 -1051 0
-1054 1052 1051 0
1054 -1052 1051 0
1054 1052 -1051 0
-1055 -972 0
-1055 -975 0
1055 972 975 0
-1056 1054 0
-1056 -1055 0
1056 -1054 1055 0
-1057 1055 -1054 0
-1057 -1055 1054 0
1057 1055 1054 0
1057 -1055 -1054 0
-1058 24 0
-1058 38 0
1058 -24 -38 0
-1059 1057 0
-1059 1058 0
1059 -1057 -1058 0
-1060 -1058 -1057 0
-1060 1058 1057 0
1060 -1058 1057 0
1060 1058 -1057 0
-1061 -978 0
-1061 -981 0
1061 978 981 0
-1062 1060 0
-1062 -1061 0
1062 -1060 1061 0
-1063 1061 -1060 0
-1063 -1061 1060 0
1063 1061 1060 0
1063 -1061 -1060 0
-1064 25 0
-1064 37 0
1064 -25 -37 0
-1065 1063 0
-1065 1064 0
1065 -1063 -1064 0
-1066 -1064 -1063 0
-1066 1064 1063 0
1066 -1064 1063 0
1066 1064 -1063 0
-1067 -984 0
-1067 -987 0
1067 984 987 0
-1068 1066 0
-1068 -1067 0
1068 -1066 1067 0
-1069 1067 -1066 0
-1069 -1067 1066 0
1069 1067 1066 0
1069 -1067 -1066 0
-1070 26 0
-1070 36 0
1070 -26 -36 0
-1071 1069 0
-1071 1070 0
1071 -1069 -1070 0
-1072 -1070 -1069 0
-1072 1070 1069 0
1072 -1070 1069 0
1072 1070 -1069 0
-1073 -990 0
-1073 -993 0
1073 990 993 0
-1074 1072 0
-1074 -1073 0
1074 -1072 1073 0
-1075 1073 -1072 0
-1075 -1073 1072 0
1075 1073 1072 0
1075 -1073 -1072 0
-1076 27 0
-1076 35 0
1076 -27 -35 0
-1077 1075 0
-1077 1076 0
1077 -1075 -1076 0
-1078 -1076 -1075 0
-1078 1076 1075 0
1078 -1076 1075 0
1078 1076 -1075 0
-1079 -996 0
-1079 -999 0
1079 996 999 0
-1080 1078 0
-1080 -1079 0
1080 -1078 1079 0
-1081 1079 -1078 0
-1081 -1079 1078 0
1081 1079 1078 0
1081 -1079 -1078 0
-1082 28 0
-1082 34 0
1082 -28 -34 0
-1083 1081 0
-1083 1082 0
1083 -1081 -1082 0
-1084 -1082 -1081 0
-1084 1082 1081 0
1084 -1082 1081 0
1084 1082 -1081 0
-1085 -1002 0
-1085 -1004 0
1085 1002 1004 0
-1086 1084 0
-1086 -1085 0
1086 -1084 1085 0
-1087 1085 -1084 0
-1087 -1085 1084 0
1087 1085 1084 0
1087 -1085 -1084 0
-1088 29 0
-1088 33 0
1088 -29 -33 0
-1089 1087 0
-1089 1088 0
1089 -1087 -1088 0
-1090 -1088 -1087 0
-1090 1088 1087 0
1090 -1088 1087 0
1090 1088 -1087 0
-1091 1007 0
-1091 1090 0
1091 -1007 -1090 0
-1092 -1090 -1007 0
-1092 1090 1007 0
1092 -1090 1007 0
1092 1090 -1007 0
-1093 30 0
-1093 32 0
1093 -30 -32 0
-1094 1092 0
-1094 1093 0
1094 -1092 -1093 0
-1095 -1093 -1092 0
-1095 1093 1092 0
1095 -1093 1092 0
1095 1093 -1092 0
-1096 14 0
-1096 1095 0
1096 -14 -1095 0
-1097 -1096 -1020 0
-1097 1096 1020 0
1097 -1096 1020 0
1097 1096 -1020 0
-1098 -1017 -1014 0
-1098 1017 1014 0
1098 -1017 1014 0
1098 1017 -1014 0
-1099 15 0
-1099 1095 0
1099 -15 -1095 0
-1100 1098 0
-1100 1099 0
1100 -1098 -1099 0
-1101 -1100 -1097 0
-1101 1100 1097 0
1101 -1100 1097 0
1101 1100 -1097 0
-1102 16 0
-1102 45 0
1102 -16 -45 0
-1103 17 0
-1103 44 0
1103 -17 -44 0
-1104 -1103 -1102 0
-1104 1103 1102 0
1104 -1103 1102 0
1104 1103 -1102 0
-1105 -1023 0
-1105 -1026 0
1105 1023 1026 0
-1106 1105 -1104 0
-1106 -1105 1104 0
1106 1105 1104 0
1106 -1105 -1104 0
-1107 18 0
-1107 43 0
1107 -18 -43 0
-1108 -1107 -1106 0
-1108 1107 1106 0
1108 -1107 1106 0
1108 1107 -1106 0
-1109 -1029 0
-1109 -1032 0
1109 1029 1032 0
-1110 1109 -1108 0
-1110 -1109 1108 0
1110 1109 1108 0
1110 -1109 -1108 0
-1111 19 0
-1111 42 0
1111 -19 -42 0
-1112 -1111 -1110 0
-1112 1111 1110 0
1112 -1111 1110 0
1112 1111 -1110 0
-1113 -1035 0
-1113 -1038 0
1113 1035 1038 0
-1114 1113 -1112 0
-1114 -1113 1112 0
1114 1113 1112 0
1114 -1113 -1112 0
-1115 20 0
-1115 41 0
1115 -20 -41 0
-1116 -1115 -1114 0
-1116 1115 1114 0
1116 -1115 1114 0
1116 1115 -1114 0
-1117 -1041 0
-1117 -1044 0
1117 1041 1044 0
-1118 1117 -1116 0
-1118 -1117 1116 0
1118 1117 1116 0
1118 -1117 -1116 0
-1119 21 0
-1119 40 0
1119 -21 -40 0
-1120 -1119 -1118 0
-1120 1119 1118 0
1120 -1119 1118 0
1120 1119 -1118 0
-1121 -1047 0
-1121 -1050 0
1121 1047 1050 0
-1122 1121 -1120 0
-1122 -1121 1120 0
1122 1121 1120 0
1122 -1121 -1120 0
-1123 22 0
-1123 39 0
1123 -22 -39 0
-1124 -1123 -1122 0
-1124 1123 1122 0
1124 -1123 1122 0
1124 1123 -1122 0
-1125 -1053 0
-1125 -1056 0
1125 1053 1056 0
-1126 1125 -1124 0
-1126 -1125 1124 0
1126 1125 1124 0
1126 -1125 -1124 0
-1127 23 0
-1127 38 0
1127 -23 -38 0
-1128 -1127 -1126 0
-1128 1127 1126 0
1128 -1127 1126 0
1128 1127 -1126 0
-1129 -1059 0
-1129 -1062 0
1129 1059 1062 0
-1130 1129 -1128 0
-1130 -1129 1128 0
1130 1129 1128 0
1130 -1129 -1128 0
-1131 24 0
-1131 37 0
1131 -24 -37 0
-1132 -1131 -1130 0
-1132 1131 1130 0
1132 -1131 1130 0
1132 1131 -1130 0
-1133 -1065 0
-1133 -1068 0
1133 1065 1068 0
-1134 1133 -1132 0
-1134 -1133 1132 0
1134 1133 1132 0
1134 -1133 -1132 0
-1135 25 0
-1135 36 0
1135 -25 -36 0
-1136 -1135 -1134 0
-1136 1135 1134 0
1136 -1135 1134 0
1136 1135 -1134 0
-1137 -1071 0
-1137 -1074 0
1137 1071 1074 0
-1138 1137 -1136 0
-1138 -1137 1136 0
1138 1137 1136 0
1138 -1137 -1136 0
-1139 26 0
-1139 35 0
1139 -26 -35 0
-1140 -1139 -1138 0
-1140 1139 1138 0
1140 -1139 1138 0
1140 1139 -1138 0
-1141 -1077 0
-1141 -1080 0
1141 1077 1080 0
-1142 1141 -1140 0
-1142 -1141 1140 0
1142 1141 1140 0
1142 -1141 -1140 0
-1143 27 0
-1143 34 0
1143 -27 -34 0
-1144 -1143 -1142 0
-1144 1143 1142 0
1144 -1143 1142 0
1144 1143 -1142 0
-1145 -1083 0
-1145 -1086 0
1145 1083 1086 0
-1146 1145 -1144 0
-1146 -1145 1144 0
1146 1145 1144 0
1146 -1145 -1144 0
-1147 28 0
-1147 33 0
1147 -28 -33 0
-1148 -1147 -1146 0
-1148 1147 1146 0
1148 -1147 1146 0
1148 1147 -1146 0
-1149 -1089 0
-1149 -1091 0
1149 1089 1091 0
-1150 1149 -1148 0
-1150 -1149 1148 0
1150 1149 1148 0
1150 -1149 -1148 0
-1151 29 0
-1151 32 0
1151 -29 -32 0
-1152 -1151 -1150 0
-1152 1151 1150 0
1152 -1151 1150 0
1152 1151 -1150 0
-1153 -1152 -1094 0
-1153 1152 1094 0
1153 -1152 1094 0
1153 1152 -1094 0
-1154 30 0
-1154 31 0
1154 -30 -31 0
-1155 -1154 -1153 0
-1155 1154 1153 0
1155 -1154 1153 0
1155 1154 -1153 0
-1156 15 0
-1156 1155 0
1156 -15 -1155 0
-1157 -1156 -1101 0
-1157 1156 1101 0
1157 -1156 1101 0
1157 1156 -1101 0
-1158 1 0
-1158 30 0
1158 -1 -30 0
-1159 2 0
-1159 29 0
1159 -2 -29 0
-1160 -1159 -1158 0
-1160 1159 1158 0
1160 -1159 1158 0
1160 1159 -1158 0
-1161 2 0
-1161 30 0
1161 -2 -30 0
-1162 3 0
-1162 29 0
1162 -3 -29 0
-1163 1161 0
-1163 1162 0
1163 -1161 -1162 0
-1164 -1162 -1161 0
-1164 1162 1161 0
1164 -1162 1161 0
1164 1162 -1161 0
-1165 3 0
-1165 30 0
1165 -3 -30 0
-1166 4 0
-1166 29 0
1166 -4 -29 0
-1167 1165 0
-1167 1166 0
1167 -1165 -1166 0
-1168 -1166 -1165 0
-1168 1166 1165 0
1168 -1166 1165 0
1168 1166 -1165 0
-1169 4 0
-1169 30 0
1169 -4 -30 0
-1170 5 0
-1170 29 0
1170 -5 -29 0
-1171 1169 0
-1171 1170 0
1171 -1169 -1170 0
-1172 -1170 -1169 0
-1172 1170 1169 0
1172 -1170 1169 0
1172 1170 -1169 0
-1173 5 0
-1173 30 0
1173 -5 -30 0
-1174 6 0
-1174 29 0
1174 -6 -29 0
-1175 1173 0
-1175 1174 0
1175 -1173 -1174 0
-1176 -1174 -1173 0
-1176 1174 1173 0
1176 -1174 1173 0
1176 1174 -1173 0
-1177 6 0
-1177 30 0
1177 -6 -30 0
-1178 7 0
-1178 29 0
1178 -7 -29 0
-1179 1177 0
-1179 1178 0
1179 -1177 -1178 0
-1180 -1178 -1177 0
-1180 1178 1177 0
1180 -1178 1177 0
1180 1178 -1177 0
-1181 7 0
-1181 30 0
1181 -7 -30 0
-1182 8 0
-1182 29 0
1182 -8 -29 0
-1183 1181 0
-1183 1182 0
1183 -1181 -1182 0
-1184 -1182 -1181 0
-1184 1182 1181 0
1184 -1182 1181 0
1184 1182 -1181 0
-1185 8 0
-1185 30 0
1185 -8 -30 0
-1186 9 0
-1186 29 0
1186 -9 -29 0
-1187 1185 0
-1187 1186 0
1187 -1185 -1186 0
-1188 -1186 -1185 0
-1188 1186 1185 0
1188 -1186 1185 0
1188 1186 -1185 0
-1189 9 0
-1189 30 0
1189 -9 -30 0
-1190 10 0
-1190 29 0
1190 -10 -29 0
-1191 1189 0
-1191 1190 0
1191 -1189 -1190 0
-1192 -1190 -1189 0
-1192 1190 1189 0
1192 -1190 1189 0
1192 1190 -1189 0
-1193 10 0
-1193 30 0
1193 -10 -30 0
-1194 11 0
-1194 29 0
1194 -11 -29 0
-1195 1193 0
-1195 1194 0
1195 -1193 -1194 0
-1196 -1194 -1193 0
-1196 1194 1193 0
1196 -1194 1193 0
1196 1194 -1193 0
-1197 11 0
-1197 30 0
1197 -11 -30 0
-1198 12 0
-1198 29 0
1198 -12 -29 0
-1199 1197 0
-1199 1198 0
1199 -1197 -1198 0
-1200 -1198 -1197 0
-1200 1198 1197 0
1200 -1198 1197 0
1200 1198 -1197 0
-1201 12 0
-1201 30 0
1201 -12 -30 0
-1202 13 0
-1202 29 0
1202 -13 -29 0
-1203 1201 0
-1203 1202 0
1203 -1201 -1202 0
-1204 -1202 -1201 0
-1204 1202 1201 0
1204 -1202 1201 0
1204 1202 -1201 0
-1205 13 0
-1205 30 0
1205 -13 -30 0
-1206 14 0
-1206 29 0
1206 -14 -29 0
-1207 1205 0
-1207 1206 0
1207 -1205 -1206 0
-1208 -1206 -1205 0
-1208 1206 1205 0
1208 -1206 1205 0
1208 1206 -1205 0
-1209 14 0
-1209 30 0
1209 -14 -30 0
-1210 15 0
-1210 29 0
1210 -15 -29 0
-1211 1209 0
-1211 1210 0
1211 -1209 -1210 0
-1212 1208 0
-1212 1211 0
1212 -1208 -1211 0
-1213 -1207 0
-1213 -1212 0
1213 1207 1212 0
-1214 1204 0
-1214 -1213 0
1214 -1204 1213 0
-1215 -1203 0
-1215 -1214 0
1215 1203 1214 0
-1216 1200 0
-1216 -1215 0
1216 -1200 1215 0
-1217 -1199 0
-1217 -1216 0
1217 1199 1216 0
-1218 1196 0
-1218 -1217 0
1218 -1196 1217 0
-1219 -1195 0
-1219 -1218 0
1219 1195 1218 0
-1220 1192 0
-1220 -1219 0
1220 -1192 1219 0
-1221 -1191 0
-1221 -1220 0
1221 1191 1220 0
-1222 1188 0
-1222 -1221 0
1222 -1188 1221 0
-1223 -1187 0
-1223 -1222 0
1223 1187 1222 0
-1224 1184 0
-1224 -1223 0
1224 -1184 1223 0
-1225 -1183 0
-1225 -1224 0
1225 1183 1224 0
-1226 1180 0
-1226 -1225 0
1226 -1180 1225 0
-1227 -1179 0
-1227 -1226 0
1227 1179 1226 0
-1228 1176 0
-1228 -1227 0
1228 -1176 1227 0
-1229 -1175 0
-1229 -1228 0
1229 1175 1228 0
-1230 1172 0
-1230 -1229 0
1230 -1172 1229 0
-1231 -1171 0
-1231 -1230 0
1231 1171 1230 0
-1232 1168 0
-1232 -1231 0
1232 -1168 1231 0
-1233 -1167 0
-1233 -1232 0
1233 1167 1232 0
-1234 1164 0
-1234 -1233 0
1234 -1164 1233 0
-1235 -1163 0
-1235 -1234 0
1235 1163 1234 0
-1236 1235 -1160 0
-1236 -1235 1160 0
1236 1235 1160 0
1236 -1235 -1160 0
-1237 3 0
-1237 28 0
1237 -3 -28 0
-1238 -1237 -1236 0
-1238 1237 1236 0
1238 -1237 1236 0
1238 1237 -1236 0
-1239 1233 -1164 0
-1239 -1233 1164 0
1239 1233 1164 0
1239 -1233 -1164 0
-1240 4 0
-1240 28 0
1240 -4 -28 0
-1241 1239 0
-1241 1240 0
1241 -1239 -1240 0
-1242 -1240 -1239 0
-1242 1240 1239 0
1242 -1240 1239 0
1242 1240 -1239 0
-1243 1231 -1168 0
-1243 -1231 1168 0
1243 1231 1168 0
1243 -1231 -1168 0
-1244 5 0
-1244 28 0
1244 -5 -28 0
-1245 1243 0
-1245 1244 0
1245 -1243 -1244 0
-1246 -1244 -1243 0
-1246 1244 1243 0
1246 -1244 1243 0
1246 1244 -1243 0
-1247 1229 -1172 0
-1247 -1229 1172 0
1247 1229 1172 0
1247 -1229 -1172 0
-1248 6 0
-1248 28 0
1248 -6 -28 0
-1249 1247 0
-1249 1248 0
1249 -1247 -1248 0
-1250 -1248 -1247 0
-1250 1248 1247 0
1250 -1248 1247 0
1250 1248 -1247 0
-1251 1227 -1176 0
-1251 -1227 1176 0
1251 1227 1176 0
1251 -1227 -1176 0
-1252 7 0
-1252 28 0
1252 -7 -28 0
-1253 1251 0
-1253 1252 0
1253 -1251 -1252 0
-1254 -1252 -1251 0
-1254 1252 1251 0
1254 -1252 1251 0
1254 1252 -1251 0
-1255 1225 -1180 0
-1255 -1225 1180 0
1255 1225 1180 0
1255 -1225 -1180 0
-1256 8 0
-1256 28 0
1256 -8 -28 0
-1257 1255 0
-1257 1256 0
1257 -1255 -1256 0
-1258 -1256 -1255 0
-1258 1256 1255 0
1258 -1256 1255 0
1258 1256 -1255 0
-1259 1223 -1184 0
-1259 -1223 1184 0
1259 1223 1184 0
1259 -1223 -1184 0
-1260 9 0
-1260 28 0
1260 -9 -28 0
-1261 1259 0
-1261 1260 0
1261 -1259 -1260 0
-1262 -1260 -1259 0
-1262 1260 1259 0
1262 -1260 1259 0
1262 1260 -1259 0
-1263 1221 -1188 0
-1263 -1221 1188 0
1263 1221 1188 0
1263 -1221 -1188 0
-1264 10 0
-1264 28 0
1264 -10 -28 0
-1265 1263 0
-1265 1264 0
1265 -1263 -1264 0
-1266 -1264 -1263 0
-1266 1264 1263 0
1266 -1264 1263 0
1266 1264 -1263 0
-1267 1219 -1192 0
-1267 -1219 1192 0
1267 1219 1192 0
1267 -1219 -1192 0
-1268 11 0
-1268 28 0
1268 -11 -28 0
-1269 1267 0
-1269 1268 0
1269 -1267 -1268 0
-1270 -1268 -1267 0
-1270 1268 1267 0
1270 -1268 1267 0
1270 1268 -1267 0
-1271 1217 -1196 0
-1271 -1217 1196 0
1271 1217 1196 0
1271 -1217 -1196 0
-1272 12 0
-1272 28 0
1272 -12 -28 0
-1273 1271 0
-1273 1272 0
1273 -1271 -1272 0
-1274 -1272 -1271 0
-1274 1272 1271 0
1274 -1272 1271 0
1274 1272 -1271 0
-1275 1215 -1200 0
-1275 -1215 1200 0
1275 1215 1200 0
1275 -1215 -1200 0
-1276 13 0
-1276 28 0
1276 -13 -28 0
-1277 1275 0
-1277 1276 0
1277 -1275 -1276 0
-1278 -1276 -1275 0
-1278 1276 1275 0
1278 -1276 1275 0
1278 1276 -1275 0
-1279 1213 -1204 0
-1279 -1213 1204 0
1279 1213 1204 0
1279 -1213 -1204 0
-1280 14 0
-1280 28 0
1280 -14 -28 0
-1281 1279 0
-1281 1280 0
1281 -1279 -1280 0
-1282 -1280 -1279 0
-1282 1280 1279 0
1282 -1280 1279 0
1282 1280 -1279 0
-1283 -1211 -1208 0
-1283 1211 1208 0
1283 -1211 1208 0
1283 1211 -1208 0
-1284 15 0
-1284 28 0
1284 -15 -28 0
-1285 1283 0
-1285 1284 0
1285 -1283 -1284 0
-1286 1282 0
-1286 1285 0
1286 -1282 -1285 0
-1287 -1281 0
-1287 -1286 0
1287 1281 1286 0
-1288 1278 0
-1288 -1287 0
1288 -1278 1287 0
-1289 -1277 0
-1289 -1288 0
1289 1277 1288 0
-1290 1274 0
-1290 -1289 0
1290 -1274 1289 0
-1291 -1273 0
-1291 -1290 0
1291 1273 1290 0
-1292 1270 0
-1292 -1291 0
1292 -1270 1291 0
-1293 -1269 0
-1293 -1292 0
1293 1269 1292 0
-1294 1266 0
-1294 -1293 0
1294 -1266 1293 0
-1295 -1265 0
-1295 -1294 0
1295 1265 1294 0
-1296 1262 0
-1296 -1295 0
1296 -1262 1295 0
-1297 -1261 0
-1297 -1296 0
1297 1261 1296 0
-1298 1258 0
-1298 -1297 0
1298 -1258 1297 0
-1299 -1257 0
-1299 -1298 0
1299 1257 1298 0
-1300 1254 0
-1300 -1299 0
1300 -1254 1299 0
-1301 -1253 0
-1301 -1300 0
1301 1253 1300 0
-1302 1250 0
-1302 -1301 0
1302 -1250 1301 0
-1303 -1249 0
-1303 -1302 0
1303 1249 1302 0
-1304 1246 0
-1304 -1303 0
1304 -1246 1303 0
-1305 -1245 0
-1305 -1304 0
1305 1245 1304 0
-1306 1242 0
-1306 -1305 0
1306 -1242 1305 0
-1307 -1241 0
-1307 -1306 0
1307 1241 1306 0
-1308 1307 -1238 0
-1308 -1307 1238 0
1308 1307 1238 0
1308 -1307 -1238 0
-1309 4 0
-1309 27 0
1309 -4 -27 0
-1310 -1309 -1308 0
-1310 1309 1308 0
1310 -1309 1308 0
1310 1309 -1308 0
-1311 1305 -1242 0
-1311 -1305 1242 0
1311 1305 1242 0
1311 -1305 -1242 0
-1312 5 0
-1312 27 0
1312 -5 -27 0
-1313 1311 0
-1313 1312 0
1313 -1311 -1312 0
-1314 -1312 -1311 0
-1314 1312 1311 0
1314 -1312 1311 0
1314 1312 -1311 0
-1315 1303 -1246 0
-1315 -1303 1246 0
1315 1303 1246 0
1315 -1303 -1246 0
-1316 6 0
-1316 27 0
1316 -6 -27 0
-1317 1315 0
-1317 1316 0
1317 -1315 -1316 0
-1318 -1316 -1315 0
-1318 1316 1315 0
1318 -1316 1315 0
1318 1316 -1315 0
-1319 1301 -1250 0
-1319 -1301 1250 0
1319 1301 1250 0
1319 -1301 -1250 0
-1320 7 0
-1320 27 0
1320 -7 -27 0
-1321 1319 0
-1321 1320 0
1321 -1319 -1320 0
-1322 -1320 -1319 0
-1322 1320 1319 0
1322 -1320 1319 0
1322 1320 -1319 0
-1323 1299 -1254 0
-1323 -1299 1254 0
1323 1299 1254 0
1323 -1299 -1254 0
-1324 8 0
-1324 27 0
1324 -8 -27 0
-1325 1323 0
-1325 1324 0
1325 -1323 -1324 0
-1326 -1324 -1323 0
-1326 1324 1323 0
1326 -1324 1323 0
1326 1324 -1323 0
-1327 1297 -1258 0
-1327 -1297 1258 0
1327 1297 1258 0
1327 -1297 -1258 0
-1328 9 0
-1328 27 0
1328 -9 -27 0
-1329 1327 0
-1329 1328 0
1329 -1327 -1328 0
-1330 -1328 -1327 0
-1330 1328 1327 0
1330 -1328 1327 0
1330 1328 -1327 0
-1331 1295 -1262 0
-1331 -1295 1262 0
1331 1295 1262 0
1331 -1295 -1262 0
-1332 10 0
-1332 27 0
1332 -10 -27 0
-1333 1331 0
-1333 1332 0
1333 -1331 -1332 0
-1334 -1332 -1331 0
-1334 1332 1331 0
1334 -1332 1331 0
1334 1332 -1331 0
-1335 1293 -1266 0
-1335 -1293 1266 0
1335 1293 1266 0
1335 -1293 -1266 0
-1336 11 0
-1336 27 0
1336 -11 -27 0
-1337 1335 0
-1337 1336 0
1337 -1335 -1336 0
-1338 -1336 -1335 0
-1338 1336 1335 0
1338 -1336 1335 0
1338 1336 -1335 0
-1339 1291 -1270 0
-1339 -1291 1270 0
1339 1291 1270 0
1339 -1291 -1270 0
-1340 12 0
-1340 27 0
1340 -12 -27 0
-1341 1339 0
-1341 1340 0
1341 -1339 -1340 0
-1342 -1340 -1339 0
-1342 1340 1339 0
1342 -1340 1339 0
1342 1340 -1339 0
-1343 1289 -1274 0
-1343 -1289 1274 0
1343 1289 1274 0
1343 -1289 -1274 0
-1344 13 0
-1344 27 0
1344 -13 -27 0
-1345 1343 0
-1345 1344 0
1345 -1343 -1344 0
-1346 -1344 -1343 0
-1346 1344 1343 0
1346 -1344 1343 0
1346 1344 -1343 0
-1347 1287 -1278 0
-1347 -1287 1278 0
1347 1287 1278 0
1347 -1287 -1278 0
-1348 14 0
-1348 27 0
1348 -14 -27 0
-1349 1347 0
-1349 1348 0
1349 -1347 -1348 0
-1350 -1348 -1347 0
-1350 1348 1347 0
1350 -1348 1347 0
1350 1348 -1347 0
-1351 -1285 -1282 0
-1351 1285 1282 0
1351 -1285 1282 0
1351 1285 -1282 0
-1352 15 0
-1352 27 0
1352 -15 -27 0
-1353 1351 0
-1353 1352 0
1353 -1351 -1352 0
-1354 1350 0
-1354 1353 0
1354 -1350 -1353 0
-1355 -1349 0
-1355 -1354 0
1355 1349 1354 0
-1356 1346 0
-1356 -1355 0
1356 -1346 1355 0
-1357 -1345 0
-1357 -1356 0
1357 1345 1356 0
-1358 1342 0
-1358 -1357 0
1358 -1342 1357 0
-1359 -1341 0
-1359 -1358 0
1359 1341 1358 0
-1360 1338 0
-1360 -1359 0
1360 -1338 1359 0
-1361 -1337 0
-1361 -1360 0
1361 1337 1360 0
-1362 1334 0
-1362 -1361 0
1362 -1334 1361 0
-1363 -1333 0
-1363 -1362 0
1363 1333 1362 0
-1364 1330 0
-1364 -1363 0
1364 -1330 1363 0
-1365 -1329 0
-1365 -1364 0
1365 1329 1364 0
-1366 1326 0
-1366 -1365 0
1366 -1326 1365 0
-1367 -1325 0
-1367 -1366 0
1367 1325 1366 0
-1368 1322 0
-1368 -1367 0
1368 -1322 1367 0
-1369 -1321 0
-1369 -1368 0
1369 1321 1368 0
-1370 1318 0
-1370 -1369 0
1370 -1318 1369 0
-1371 -1317 0
-1371 -1370 0
1371 1317 1370 0
-1372 1314 0
-1372 -1371 0
1372 -1314 1371 0
-1373 -1313 0
-1373 -1372 0
1373 1313 1372 0
-1374 1373 -1310 0
-1374 -1373 1310 0
1374 1373 1310 0
1374 -1373 -1310 0
-1375 5 0
-1375 26 0
1375 -5 -26 0
-1376 -1375 -1374 0
-1376 1375 1374 0
1376 -1375 1374 0
1376 1375 -1374 0
-1377 1371 -1314 0
-1377 -1371 1314 0
1377 1371 1314 0
1377 -1371 -1314 0
-1378 6 0
-1378 26 0
1378 -6 -26 0
-1379 1377 0
-1379 1378 0
1379 -1377 -1378 0
-1380 -1378 -1377 0
-1380 1378 1377 0
1380 -1378 1377 0
1380 1378 -1377 0
-1381 1369 -1318 0
-1381 -1369 1318 0
1381 1369 1318 0
1381 -1369 -1318 0
-1382 7 0
-1382 26 0
1382 -7 -26 0
-1383 1381 0
-1383 1382 0
1383 -1381 -1382 0
-1384 -1382 -1381 0
-1384 1382 1381 0
1384 -1382 1381 0
1384 1382 -1381 0
-1385 1367 -1322 0
-1385 -1367 1322 0
1385 1367 1322 0
1385 -1367 -1322 0
-1386 8 0
-1386 26 0
1386 -8 -26 0
-1387 1385 0
-1387 1386 0
1387 -1385 -1386 0
-1388 -1386 -1385 0
-1388 1386 1385 0
1388 -1386 1385 0
1388 1386 -1385 0
-1389 1365 -1326 0
-1389 -1365 1326 0
1389 1365 1326 0
1389 -1365 -1326 0
-1390 9 0
-1390 26 0
1390 -9 -26 0
-1391 1389 0
-1391 1390 0
1391 -1389 -1390 0
-1392 -1390 -1389 0
-1392 1390 1389 0
1392 -1390 1389 0
1392 1390 -1389 0
-1393 1363 -1330 0
-1393 -1363 1330 0
1393 1363 1330 0
1393 -1363 -1330 0
-1394 10 0
-1394 26 0
1394 -10 -26 0
-1395 1393 0
-1395 1394 0
1395 -1393 -1394 0
-1396 -1394 -1393 0
-1396 1394 1393 0
1396 -1394 1393 0
1396 1394 -1393 0
-1397 1361 -1334 0
-1397 -1361 1334 0
1397 1361 1334 0
1397 -1361 -1334 0
-1398 11 0
-1398 26 0
1398 -11 -26 0
-1399 1397 0
-1399 1398 0
1399 -1397 -1398 0
-1400 -1398 -1397 0
-1400 1398 1397 0
1400 -1398 1397 0
1400 1398 -1397 0
-1401 1359 -1338 0
-1401 -1359 1338 0
1401 1359 1338 0
1401 -1359 -1338 0
-1402 12 0
-1402 26 0
1402 -12 -26 0
-1403 1401 0
-1403 1402 0
1403 -1401 -1402 0
-1404 -1402 -1401 0
-1404 1402 1401 0
1404 -1402 1401 0
1404 1402 -1401 0
-1405 1357 -1342 0
-1405 -1357 1342 0
1405 1357 1342 0
1405 -1357 -1342 0
-1406 13 0
-1406 26 0
1406 -13 -26 0
-1407 1405 0
-1407 1406 0
1407 -1405 -1406 0
-1408 -1406 -1405 0
-1408 1406 1405 0
1408 -1406 1405 0
1408 1406 -1405 0
-1409 1355 -1346 0
-1409 -1355 1346 0
1409 1355 1346 0
1409 -1355 -1346 0
-1410 14 0
-1410 26 0
1410 -14 -26 0
-1411 1409 0
-1411 1410 0
1411 -1409 -1410 0
-1412 -1410 -1409 0
-1412 1410 1409 0
1412 -1410 1409 0
1412 1410 -1409 0
-1413 -1353 -1350 0
-1413 1353 1350 0
1413 -1353 1350 0
1413 1353 -1350 0
-1414 15 0
-1414 26 0
1414 -15 -26 0
-1415 1413 0
-1415 1414 0
1415 -1413 -1414 0
-1416 1412 0
-1416 1415 0
1416 -1412 -1415 0
-1417 -1411 0
-1417 -1416 0
1417 1411 1416 0
-1418 1408 0
-1418 -1417 0
1418 -1408 1417 0
-1419 -1407 0
-1419 -1418 0
1419 1407 1418 0
-1420 1404 0
-1420 -1419 0
1420 -1404 1419 0
-1421 -1403 0
-1421 -1420 0
1421 1403 1420 0
-1422 1400 0
-1422 -1421 0
1422 -1400 1421 0
-1423 -1399 0
-1423 -1422 0
1423 1399 1422 0
-1424 1396 0
-1424 -1423 0
1424 -1396 1423 0
-1425 -1395 0
-1425 -1424 0
1425 1395 1424 0
-1426 1392 0
-1426 -1425 0
1426 -1392 1425 0
-1427 -1391 0
-1427 -1426 0
1427 1391 1426 0
-1428 1388 0
-1428 -1427 0
1428 -1388 1427 0
-1429 -1387 0
-1429 -1428 0
1429 1387 1428 0
-1430 1384 0
-1430 -1429 0
1430 -1384 1429 0
-1431 -1383 0
-1431 -1430 0
1431 1383 1430 0
-1432 1380 0
-1432 -1431 0
1432 -1380 1431 0
-1433 -1379 0
-1433 -1432 0
1433 1379 1432 0
-1434 1433 -1376 0
-1434 -1433 1376 0
1434 1433 1376 0
1434 -1433 -1376 0
-1435 6 0
-1435 25 0
1435 -6 -25 0
-1436 -1435 -1434 0
-1436 1435 1434 0
1436 -1435 1434 0
1436 1435 -1434 0
-1437 1431 -1380 0
-1437 -1431 1380 0
1437 1431 1380 0
1437 -1431 -1380 0
-1438 7 0
-1438 25 0
1438 -7 -25 0
-1439 1437 0
-1439 1438 0
1439 -1437 -1438 0
-1440 -1438 -1437 0
-1440 1438 1437 0
1440 -1438 1437 0
1440 1438 -1437 0
-1441 1429 -1384 0
-1441 -1429 1384 0
1441 1429 1384 0
1441 -1429 -1384 0
-1442 8 0
-1442 25 0
1442 -8 -25 0
-1443 1441 0
-1443 1442 0
1443 -1441 -1442 0
-1444 -1442 -1441 0
-1444 1442 1441 0
1444 -1442 1441 0
1444 1442 -1441 0
-1445 1427 -1388 0
-1445 -1427 1388 0
1445 1427 1388 0
1445 -1427 -1388 0
-1446 9 0
-1446 25 0
1446 -9 -25 0
-1447 1445 0
-1447 1446 0
1447 -1445 -1446 0
-1448 -1446 -1445 0
-1448 1446 1445 0
1448 -1446 1445 0
1448 1446 -1445 0
-1449 1425 -1392 0
-1449 -1425 1392 0
1449 1425 1392 0
1449 -1425 -1392 0
-1450 10 0
-1450 25 0
1450 -10 -25 0
-1451 1449 0
-1451 1450 0
1451 -1449 -1450 0
-1452 -1450 -1449 0
-1452 1450 1449 0
1452 -1450 1449 0
1452 1450 -1449 0
-1453 1423 -1396 0
-1453 -1423 1396 0
1453 1423 1396 0
1453 -1423 -1396 0
-1454 11 0
-1454 25 0
1454 -11 -25 0
-1455 1453 0
-1455 1454 0
1455 -1453 -1454 0
-1456 -1454 -1453 0
-1456 1454 1453 0
1456 -1454 1453 0
1456 1454 -1453 0
-1457 1421 -1400 0
-1457 -1421 1400 0
1457 1421 1400 0
1457 -1421 -1400 0
-1458 12 0
-1458 25 0
1458 -12 -25 0
-1459 1457 0
-1459 1458 0
1459 -1457 -1458 0
-1460 -1458 -1457 0
-1460 1458 1457 0
1460 -1458 1457 0
1460 1458 -1457 0
-1461 1419 -1404 0
-1461 -1419 1404 0
1461 1419 1404 0
1461 -1419 -1404 0
-1462 13 0
-1462 25 0
1462 -13 -25 0
-1463 1461 0
-1463 1462 0
1463 -1461 -1462 0
-1464 -1462 -1461 0
-1464 1462 1461 0
1464 -1462 1461 0
1464 1462 -1461 0
-1465 1417 -1408 0
-1465 -1417 1408 0
1465 1417 1408 0
1465 -1417 -1408 0
-1466 14 0
-1466 25 0
1466 -14 -25 0
-1467 1465 0
-1467 1466 0
1467 -1465 -1466 0
-1468 -1466 -1465 0
-1468 1466 1465 0
1468 -1466 1465 0
1468 1466 -1465 0
-1469 -1415 -1412 0
-1469 1415 1412 0
1469 -1415 1412 0
1469 1415 -1412 0
-1470 15 0
-1470 25 0
1470 -15 -25 0
-1471 1469 0
-1471 1470 0
1471 -1469 -1470 0
-1472 1468 0
-1472 1471 0
1472 -1468 -1471 0
-1473 -1467 0
-1473 -1472 0
1473 1467 1472 0
-1474 1464 0
-1474 -1473 0
1474 -1464 1473 0
-1475 -1463 0
-1475 -1474 0
1475 1463 1474 0
-1476 1460 0
-1476 -1475 0
1476 -1460 1475 0
-1477 -1459 0
-1477 -1476 0
1477 1459 1476 0
-1478 1456 0
-1478 -1477 0
1478 -1456 1477 0
-1479 -1455 0
-1479 -1478 0
1479 1455 1478 0
-1480 1452 0
-1480 -1479 0
1480 -1452 1479 0
-1481 -1451 0
-1481 -1480 0
1481 1451 1480 0
-1482 1448 0
-1482 -1481 0
1482 -1448 1481 0
-1483 -1447 0
-1483 -1482 0
1483 1447 1482 0
-1484 1444 0
-1484 -1483 0
1484 -1444 1483 0
-1485 -1443 0
-1485 -1484 0
1485 1443 1484 0
-1486 1440 0
-1486 -1485 0
1486 -1440 1485 0
-1487 -1439 0
-1487 -1486 0
1487 1439 1486 0
-1488 1487 -1436 0
-1488 -1487 1436 0
1488 1487 1436 0
1488 -1487 -1436 0
-1489 7 0
-1489 24 0
1489 -7 -24 0
-1490 -1489 -1488 0
-1490 1489 1488 0
1490 -1489 1488 0
1490 1489 -1488 0
-1491 1485 -1440 0
-1491 -1485 1440 0
1491 1485 1440 0
1491 -1485 -1440 0
-1492 8 0
-1492 24 0
1492 -8 -24 0
-1493 1491 0
-1493 1492 0
1493 -1491 -1492 0
-1494 -1492 -1491 0
-1494 1492 1491 0
1494 -1492 1491 0
1494 1492 -1491 0
-1495 1483 -1444 0
-1495 -1483 1444 0
1495 1483 1444 0
1495 -1483 -1444 0
-1496 9 0
-1496 24 0
1496 -9 -24 0
-1497 1495 0
-1497 1496 0
1497 -1495 -1496 0
-1498 -1496 -1495 0
-1498 1496 1495 0
1498 -1496 1495 0
1498 1496 -1495 0
-1499 1481 -1448 0
-1499 -1481 1448 0
1499 1481 1448 0
1499 -1481 -1448 0
-1500 10 0
-1500 24 0
1500 -10 -24 0
-1501 1499 0
-1501 1500 0
1501 -1499 -1500 0
-1502 -1500 -1499 0
-1502 1500 1499 0
1502 -1500 1499 0
1502 1500 -1499 0
-1503 1479 -1452 0
-1503 -1479 1452 0
1503 1479 1452 0
1503 -1479 -1452 0
-1504 11 0
-1504 24 0
1504 -11 -24 0
-1505 1503 0
-1505 1504 0
1505 -1503 -1504 0
-1506 -1504 -1503 0
-1506 1504 1503 0
1506 -1504 1503 0
1506 1504 -1503 0
-1507 1477 -1456 0
-1507 -1477 1456 0
1507 1477 1456 0
1507 -1477 -1456 0
-1508 12 0
-1508 24 0
1508 -12 -24 0
-1509 1507 0
-1509 1508 0
1509 -1507 -1508 0
-1510 -1508 -1507 0
-1510 1508 1507 0
1510 -1508 1507 0
1510 1508 -1507 0
-1511 1475 -1460 0
-1511 -1475 1460 0
1511 1475 1460 0
1511 -1475 -1460 0
-1512 13 0
-1512 24 0
1512 -13 -24 0
-1513 1511 0
-1513 1512 0
1513 -1511 -1512 0
-1514 -1512 -1511 0
-1514 1512 1511 0
1514 -1512 1511 0
1514 1512 -1511 0
-1515 1473 -1464 0
-1515 -1473 1464 0
1515 1473 1464 0
1515 -1473 -1464 0
-1516 14 0
-1516 24 0
1516 -14 -24 0
-1517 1515 0
-1517 1516 0
1517 -1515 -1516 0
-1518 -1516 -1515 0
-1518 1516 1515 0
1518 -1516 1515 0
1518 1516 -1515 0
-1519 -1471 -1468 0
-1519 1471 1468 0
1519 -1471 1468 0
1519 1471 -1468 0
-1520 15 0
-1520 24 0
1520 -15 -24 0
-1521 1519 0
-1521 1520 0
1521 -1519 -1520 0
-1522 1518 0
-1522 1521 0
1522 -1518 -1521 0
-1523 -1517 0
-1523 -1522 0
1523 1517 1522 0
-1524 1514 0
-1524 -1523 0
1524 -1514 1523 0
-1525 -1513 0
-1525 -1524 0
1525 1513 1524 0
-1526 1510 0
-1526 -1525 0
1526 -1510 1525 0
-1527 -1509 0
-1527 -1526 0
1527 1509 1526 0
-1528 1506 0
-1528 -1527 0
1528 -1506 1527 0
-1529 -1505 0
-1529 -1528 0
1529 1505 1528 0
-1530 1502 0
-1530 -1529 0
1530 -1502 1529 0
-1531 -1501 0
-1531 -1530 0
1531 1501 1530 0
-1532 1498 0
-1532 -1531 0
1532 -1498 1531 0
-1533 -1497 0
-1533 -1532 0
1533 1497 1532 0
-1534 1494 0
-1534 -1533 0
1534 -1494 1533 0
-1535 -1493 0
-1535 -1534 0
1535 1493 1534 0
-1536 1535 -1490 0
-1536 -1535 1490 0
1536 1535 1490 0
1536 -1535 -1490 0
-1537 8 0
-1537 23 0
1537 -8 -23 0
-1538 -1537 -1536 0
-1538 1537 1536 0
1538 -1537 1536 0
1538 1537 -1536 0
-1539 1533 -1494 0
-1539 -1533 1494 0
1539 1533 1494 0
1539 -1533 -1494 0
-1540 9 0
-1540 23 0
1540 -9 -23 0
-1541 1539 0
-1541 1540 0
1541 -1539 -1540 0
-1542 -1540 -1539 0
-1542 1540 1539 0
1542 -1540 1539 0
1542 1540 -1539 0
-1543 1531 -1498 0
-1543 -1531 1498 0
1543 1531 1498 0
1543 -1531 -1498 0
-1544 10 0
-1544 23 0
1544 -10 -23 0
-1545 1543 0
-1545 1544 0
1545 -1543 -1544 0
-1546 -1544 -1543 0
-1546 1544 1543 0
1546 -1544 1543 0
1546 1544 -1543 0
-1547 1529 -1502 0
-1547 -1529 1502 0
1547 1529 1502 0
1547 -1529 -1502 0
-1548 11 0
-1548 23 0
1548 -11 -23 0
-1549 1547 0
-1549 1548 0
1549 -1547 -1548 0
-1550 -1548 -1547 0
-1550 1548 1547 0
1550 -1548 1547 0
1550 1548 -1547 0
-1551 1527 -1506 0
-1551 -1527 1506 0
1551 1527 1506 0
1551 -1527 -1506 0
-1552 12 0
-1552 23 0
1552 -12 -23 0
-1553 1551 0
-1553 1552 0
1553 -1551 -1552 0
-1554 -1552 -1551 0
-1554 1552 1551 0
1554 -1552 1551 0
1554 1552 -1551 0
-1555 1525 -1510 0
-1555 -1525 1510 0
1555 1525 1510 0
1555 -1525 -1510 0
-1556 13 0
-1556 23 0
1556 -13 -23 0
-1557 1555 0
-1557 1556 0
1557 -1555 -1556 0
-1558 -1556 -1555 0
-1558 1556 1555 0
1558 -1556 1555 0
1558 1556 -1555 0
-1559 1523 -1514 0
-1559 -1523 1514 0
1559 1523 1514 0
1559 -1523 -1514 0
-1560 14 0
-1560 23 0
1560 -14 -23 0
-1561 1559 0
-1561 1560 0
1561 -1559 -1560 0
-1562 -1560 -1559 0
-1562 1560 1559 0
1562 -1560 1559 0
1562 1560 -1559 0
-1563 -1521 -1518 0
-1563 1521 1518 0
1563 -1521 1518 0
1563 1521 -1518 0
-1564 15 0
-1564 23 0
1564 -15 -23 0
-1565 1563 0
-1565 1564 0
1565 -1563 -1564 0
-1566 1562 0
-1566 1565 0
1566 -1562 -1565 0
-1567 -1561 0
-1567 -1566 0
1567 1561 1566 0
-1568 1558 0
-1568 -1567 0
1568 -1558 1567 0
-1569 -1557 0
-1569 -1568 0
1569 1557 1568 0
-1570 1554 0
-1570 -1569 0
1570 -1554 1569 0
-1571 -1553 0
-1571 -1570 0
1571 1553 1570 0
-1572 1550 0
-1572 -1571 0
1572 -1550 1571 0
-1573 -1549 0
-1573 -1572 0
1573 1549 1572 0
-1574 1546 0
-1574 -1573 0
1574 -1546 1573 0
-1575 -1545 0
-1575 -1574 0
1575 1545 1574 0
-1576 1542 0
-1576 -1575 0
1576 -1542 1575 0
-1577 -1541 0
-1577 -1576 0
1577 1541 1576 0
-1578 1577 -1538 0
-1578 -1577 1538 0
1578 1577 1538 0
1578 -1577 -1538 0
-1579 9 0
-1579 22 0
1579 -9 -22 0
-1580 -1579 -1578 0
-1580 1579 1578 0
1580 -1579 1578 0
1580 1579 -1578 0
-1581 1575 -1542 0
-1581 -1575 1542 0
1581 1575 1542 0
1581 -1575 -1542 0
-1582 10 0
-1582 22 0
1582 -10 -22 0
-1583 1581 0
-1583 1582 0
1583 -1581 -1582 0
-1584 -1582 -1581 0
-1584 1582 1581 0
1584 -1582 1581 0
1584 1582 -1581 0
-1585 1573 -1546 0
-1585 -1573 1546 0
1585 1573 1546 0
1585 -1573 -1546 0
-1586 11 0
-1586 22 0
1586 -11 -22 0
-1587 1585 0
-1587 1586 0
1587 -1585 -1586 0
-1588 -1586 -1585 0
-1588 1586 1585 0
1588 -1586 1585 0
1588 1586 -1585 0
-1589 1571 -1550 0
-1589 -1571 1550 0
1589 1571 1550 0
1589 -1571 -1550 0
-1590 12 0
-1590 22 0
1590 -12 -22 0
-1591 1589 0
-1591 1590 0
1591 -1589 -1590 0
-1592 -1590 -1589 0
-1592 1590 1589 0
1592 -1590 1589 0
1592 1590 -1589 0
-1593 1569 -1554 0
-1593 -1569 1554 0
1593 1569 1554 0
1593 -1569 -1554 0
-1594 13 0
-1594 22 0
1594 -13 -22 0
-1595 1593 0
-1595 1594 0
1595 -1593 -1594 0
-1596 -1594 -1593 0
-1596 1594 1593 0
1596 -1594 1593 0
1596 1594 -1593 0
-1597 1567 -1558 0
-1597 -1567 1558 0
1597 1567 1558 0
1597 -1567 -1558 0
-1598 14 0
-1598 22 0
1598 -14 -22 0
-1599 1597 0
-1599 1598 0
1599 -1597 -1598 0
-1600 -1598 -1597 0
-1600 1598 1597 0
1600 -1598 1597 0
1600 1598 -1597 0
-1601 -1565 -1562 0
-1601 1565 1562 0
1601 -1565 1562 0
1601 1565 -1562 0
-1602 15 0
-1602 22 0
1602 -15 -22 0
-1603 1601 0
-1603 1602 0
1603 -1601 -1602 0
-1604 1600 0
-1604 1603 0
1604 -1600 -1603 0
-1605 -1599 0
-1605 -1604 0
1605 1599 1604 0
-1606 1596 0
-1606 -1605 0
1606 -1596 1605 0
-1607 -1595 0
-1607 -1606 0
1607 1595 1606 0
-1608 1592 0
-1608 -1607 0
1608 -1592 1607 0
-1609 -1591 0
-1609 -1608 0
1609 1591 1608 0
-1610 1588 0
-1610 -1609 0
1610 -1588 1609 0
-1611 -1587 0
-1611 -1610 0
1611 1587 1610 0
-1612 1584 0
-1612 -1611 0
1612 -1584 1611 0
-1613 -1583 0
-1613 -1612 0
1613 1583 1612 0
-1614 1613 -1580 0
-1614 -1613 1580 0
1614 1613 1580 0
1614 -1613 -1580 0
-1615 10 0
-1615 21 0
1615 -10 -21 0
-1616 -1615 -1614 0
-1616 1615 1614 0
1616 -1615 1614 0
1616 1615 -1614 0
-1617 1611 -1584 0
-1617 -1611 1584 0
1617 1611 1584 0
1617 -1611 -1584 0
-1618 11 0
-1618 21 0
1618 -11 -21 0
-1619 1617 0
-1619 1618 0
1619 -1617 -1618 0
-1620 -1618 -1617 0
-1620 1618 1617 0
1620 -1618 1617 0
1620 1618 -1617 0
-1621 1609 -1588 0
-1621 -1609 1588 0
1621 1609 1588 0
1621 -1609 -1588 0
-1622 12 0
-1622 21 0
1622 -12 -21 0
-1623 1621 0
-1623 1622 0
1623 -1621 -1622 0
-1624 -1622 -1621 0
-1624 1622 1621 0
1624 -1622 1621 0
1624 1622 -1621 0
-1625 1607 -1592 0
-1625 -1607 1592 0
1625 1607 1592 0
1625 -1607 -1592 0
-1626 13 0
-1626 21 0
1626 -13 -21 0
-1627 1625 0
-1627 1626 0
1627 -1625 -1626 0
-1628 -1626 -1625 0
-1628 1626 1625 0
1628 -1626 1625 0
1628 1626 -1625 0
-1629 1605 -1596 0
-1629 -1605 1596 0
1629 1605 1596 0
1629 -1605 -1596 0
-1630 14 0
-1630 21 0
1630 -14 -21 0
-1631 1629 0
-1631 1630 0
1631 -1629 -1630 0
-1632 -1630 -1629 0
-1632 1630 1629 0
1632 -1630 1629 0
1632 1630 -1629 0
-1633 -1603 -1600 0
-1633 1603 1600 0
1633 -1603 1600 0
1633 1603 -1600 0
-1634 15 0
-1634 21 0
1634 -15 -21 0
-1635 1633 0
-1635 1634 0
1635 -1633 -1634 0
-1636 1632 0
-1636 1635 0
1636 -1632 -1635 0
-1637 -1631 0
-1637 -1636 0
1637 1631 1636 0
-1638 1628 0
-1638 -1637 0
1638 -1628 1637 0
-1639 -1627 0
-1639 -1638 0
1639 1627 1638 0
-1640 1624 0
-1640 -1639 0
1640 -1624 1639 0
-1641 -1623 0
-1641 -1640 0
1641 1623 1640 0
-1642 1620 0
-1642 -1641 0
1642 -1620 1641 0
-1643 -1619 0
-1643 -1642 0
1643 1619 1642 0
-1644 1643 -1616 0
-1644 -1643 1616 0
1644 1643 1616 0
1644 -1643 -1616 0
-1645 11 0
-1645 20 0
1645 -11 -20 0
-1646 -1645 -1644 0
-1646 1645 1644 0
1646 -1645 1644 0
1646 1645 -1644 0
-1647 1641 -1620 0
-1647 -1641 1620 0
1647 1641 1620 0
1647 -1641 -1620 0
-1648 12 0
-1648 20 0
1648 -12 -20 0
-1649 1647 0
-1649 1648 0
1649 -1647 -1648 0
-1650 -1648 -1647 0
-1650 1648 1647 0
1650 -1648 1647 0
1650 1648 -1647 0
-1651 1639 -1624 0
-1651 -1639 1624 0
1651 1639 1624 0
1651 -1639 -1624 0
-1652 13 0
-1652 20 0
1652 -13 -20 0
-1653 1651 0
-1653 1652 0
1653 -1651 -1652 0
-1654 -1652 -1651 0
-1654 1652 1651 0
1654 -1652 1651 0
1654 1652 -1651 0
-1655 1637 -1628 0
-1655 -1637 1628 0
1655 1637 1628 0
1655 -1637 -1628 0
-1656 14 0
-1656 20 0
1656 -14 -20 0
-1657 1655 0
-1657 1656 0
1657 -1655 -1656 0
-1658 -1656 -1655 0
-1658 1656 1655 0
1658 -1656 1655 0
1658 1656 -1655 0
-1659 -1635 -1632 0
-1659 1635 1632 0
1659 -1635 1632 0
1659 1635 -1632 0
-1660 15 0
-1660 20 0
1660 -15 -20 0
-1661 1659 0
-1661 1660 0
1661 -1659 -1660 0
-1662 1658 0
-1662 1661 0
1662 -1658 -1661 0
-1663 -1657 0
-1663 -1662 0
1663 1657 1662 0
-1664 1654 0
-1664 -1663 0
1664 -1654 1663 0
-1665 -1653 0
-1665 -1664 0
1665 1653 1664 0
-1666 1650 0
-1666 -1665 0
1666 -1650 1665 0
-1667 -1649 0
-1667 -1666 0
1667 1649 1666 0
-1668 1667 -1646 0
-1668 -1667 1646 0
1668 1667 1646 0
1668 -1667 -1646 0
-1669 12 0
-1669 19 0
1669 -12 -19 0
-1670 -1669 -1668 0
-1670 1669 1668 0
1670 -1669 1668 0
1670 1669 -1668 0
-1671 1665 -1650 0
-1671 -1665 1650 0
1671 1665 1650 0
1671 -1665 -1650 0
-1672 13 0
-1672 19 0
1672 -13 -19 0
-1673 1671 0
-1673 1672 0
1673 -1671 -1672 0
-1674 -1672 -1671 0
-1674 1672 1671 0
1674 -1672 1671 0
1674 1672 -1671 0
-1675 1663 -1654 0
-1675 -1663 1654 0
1675 1663 1654 0
1675 -1663 -1654 0
-1676 14 0
-1676 19 0
1676 -14 -19 0
-1677 1675 0
-1677 1676 0
1677 -1675 -1676 0
-1678 -1676 -1675 0
-1678 1676 1675 0
1678 -1676 1675 0
1678 1676 -1675 0
-1679 -1661 -1658 0
-1679 1661 1658 0
1679 -1661 1658 0
1679 1661 -1658 0
-1680 15 0
-1680 19 0
1680 -15 -19 0
-1681 1679 0
-1681 1680 0
1681 -1679 -1680 0
-1682 1678 0
-1682 1681 0
1682 -1678 -1681 0
-1683 -1677 0
-1683 -1682 0
1683 1677 1682 0
-1684 1674 0
-1684 -1683 0
1684 -1674 1683 0
-1685 -1673 0
-1685 -1684 0
1685 1673 1684 0
-1686 1685 -1670 0
-1686 -1685 1670 0
1686 1685 1670 0
1686 -1685 -1670 0
-1687 13 0
-1687 18 0
1687 -13 -18 0
-1688 -1687 -1686 0
-1688 1687 1686 0
1688 -1687 1686 0
1688 1687 -1686 0
-1689 1683 -1674 0
-1689 -1683 1674 0
1689 1683 1674 0
1689 -1683 -1674 0
-1690 14 0
-1690 18 0
1690 -14 -18 0
-1691 1689 0
-1691 1690 0
1691 -1689 -1690 0
-1692 -1690 -1689 0
-1692 1690 1689 0
1692 -1690 1689 0
1692 1690 -1689 0
-1693 -1681 -1678 0
-1693 1681 1678 0
1693 -1681 1678 0
1693 1681 -1678 0
-1694 15 0
-1694 18 0
1694 -15 -18 0
-1695 1693 0
-1695 1694 0
1695 -1693 -1694 0
-1696 1692 0
-1696 1695 0
1696 -1692 -1695 0
-1697 -1691 0
-1697 -1696 0
1697 1691 1696 0
-1698 1697 -1688 0
-1698 -1697 1688 0
1698 1697 1688 0
1698 -1697 -1688 0
-1699 14 0
-1699 17 0
1699 -14 -17 0
-1700 -1699 -1698 0
-1700 1699 1698 0
1700 -1699 1698 0
1700 1699 -1698 0
-1701 -1695 -1692 0
-1701 1695 1692 0
1701 -1695 1692 0
1701 1695 -1692 0
-1702 15 0
-1702 17 0
1702 -15 -17 0
-1703 1701 0
-1703 1702 0
1703 -1701 -1702 0
-1704 -1703 -1700 0
-1704 1703 1700 0
1704 -1703 1700 0
1704 1703 -1700 0
-1705 15 0
-1705 16 0
1705 -15 -16 0
-1706 -1705 -1704 0
-1706 1705 1704 0
1706 -1705 1704 0
1706 1705 -1704 0
-1707 45 0
-1707 1706 0
1707 -45 -1706 0
-1708 -1702 -1701 0
-1708 1702 1701 0
1708 -1702 1701 0
1708 1702 -1701 0
-1709 44 0
-1709 1708 0
1709 -44 -1708 0
-1710 -1709 -1707 0
-1710 1709 1707 0
1710 -1709 1707 0
1710 1709 -1707 0
-1711 45 0
-1711 1708 0
1711 -45 -1708 0
-1712 -1694 -1693 0
-1712 1694 1693 0
1712 -1694 1693 0
1712 1694 -1693 0
-1713 44 0
-1713 1712 0
1713 -44 -1712 0
-1714 1711 0
-1714 1713 0
1714 -1711 -1713 0
-1715 -1713 -1711 0
-1715 1713 1711 0
1715 -1713 1711 0
1715 1713 -1711 0
-1716 45 0
-1716 1712 0
1716 -45 -1712 0
-1717 -1680 -1679 0
-1717 1680 1679 0
1717 -1680 1679 0
1717 1680 -1679 0
-1718 44 0
-1718 1717 0
1718 -44 -1717 0
-1719 1716 0
-1719 1718 0
1719 -1716 -1718 0
-1720 -1718 -1716 0
-1720 1718 1716 0
1720 -1718 1716 0
1720 1718 -1716 0
-1721 45 0
-1721 1717 0
1721 -45 -1717 0
-1722 -1660 -1659 0
-1722 1660 1659 0
1722 -1660 1659 0
1722 1660 -1659 0
-1723 44 0
-1723 1722 0
1723 -44 -1722 0
-1724 1721 0
-1724 1723 0
1724 -1721 -1723 0
-1725 -1723 -1721 0
-1725 1723 1721 0
1725 -1723 1721 0
1725 1723 -1721 0
-1726 45 0
-1726 1722 0
1726 -45 -1722 0
-1727 -1634 -1633 0
-1727 1634 1633 0
1727 -1634 1633 0
1727 1634 -1633 0
-1728 44 0
-1728 1727 0
1728 -44 -1727 0
-1729 1726 0
-1729 1728 0
1729 -1726 -1728 0
-1730 -1728 -1726 0
-1730 1728 1726 0
1730 -1728 1726 0
1730 1728 -1726 0
-1731 45 0
-1731 1727 0
1731 -45 -1727 0
-1732 -1602 -1601 0
-1732 1602 1601 0
1732 -1602 1601 0
1732 1602 -1601 0
-1733 44 0
-1733 1732 0
1733 -44 -1732 0
-1734 1731 0
-1734 1733 0
1734 -1731 -1733 0
-1735 -1733 -1731 0
-1735 1733 1731 0
1735 -1733 1731 0
1735 1733 -1731 0
-1736 45 0
-1736 1732 0
1736 -45 -1732 0
-1737 -1564 -1563 0
-1737 1564 1563 0
1737 -1564 1563 0
1737 1564 -1563 0
-1738 44 0
-1738 1737 0
1738 -44 -1737 0
-1739 1736 0
-1739 1738 0
1739 -1736 -1738 0
-1740 -1738 -1736 0
-1740 1738 1736 0
1740 -1738 1736 0
1740 1738 -1736 0
-1741 45 0
-1741 1737 0
1741 -45 -1737 0
-1742 -1520 -1519 0
-1742 1520 1519 0
1742 -1520 1519 0
1742 1520 -1519 0
-1743 44 0
-1743 1742 0
1743 -44 -1742 0
-1744 1741 0
-1744 1743 0
1744 -1741 -1743 0
-1745 -1743 -1741 0
-1745 1743 1741 0
1745 -1743 1741 0
1745 1743 -1741 0
-1746 45 0
-1746 1742 0
1746 -45 -1742 0
-1747 -1470 -1469 0
-1747 1470 1469 0
1747 -1470 1469 0
1747 1470 -1469 0
-1748 44 0
-1748 1747 0
1748 -44 -1747 0
-1749 1746 0
-1749 1748 0
1749 -1746 -1748 0
-1750 -1748 -1746 0
-1750 1748 1746 0
1750 -1748 1746 0
1750 1748 -1746 0
-1751 45 0
-1751 1747 0
1751 -45 -1747 0
-1752 -1414 -1413 0
-1752 1414 1413 0
1752 -1414 1413 0
1752 1414 -1413 0
-1753 44 0
-1753 1752 0
1753 -44 -1752 0
-1754 1751 0
-1754 1753 0
1754 -1751 -1753 0
-1755 -1753 -1751 0
-1755 1753 1751 0
1755 -1753 1751 0
1755 1753 -1751 0
-1756 45 0
-1756 1752 0
1756 -45 -1752 0
-1757 -1352 -1351 0
-1757 1352 1351 0
1757 -1352 1351 0
1757 1352 -1351 0
-1758 44 0
-1758 1757 0
1758 -44 -1757 0
-1759 1756 0
-1759 1758 0
1759 -1756 -1758 0
-1760 -1758 -1756 0
-1760 1758 1756 0
1760 -1758 1756 0
1760 1758 -1756 0
-1761 45 0
-1761 1757 0
1761 -45 -1757 0
-1762 -1284 -1283 0
-1762 1284 1283 0
1762 -1284 1283 0
1762 1284 -1283 0
-1763 44 0
-1763 1762 0
1763 -44 -1762 0
-1764 1761 0
-1764 1763 0
1764 -1761 -1763 0
-1765 -1763 -1761 0
-1765 1763 1761 0
1765 -1763 1761 0
1765 1763 -1761 0
-1766 45 0
-1766 1762 0
1766 -45 -1762 0
-1767 -1210 -1209 0
-1767 1210 1209 0
1767 -1210 1209 0
1767 1210 -1209 0
-1768 44 0
-1768 1767 0
1768 -44 -1767 0
-1769 1766 0
-1769 1768 0
1769 -1766 -1768 0
-1770 -1768 -1766 0
-1770 1768 1766 0
1770 -1768 1766 0
1770 1768 -1766 0
-1771 45 0
-1771 1767 0
1771 -45 -1767 0
-1772 15 0
-1772 30 0
1772 -15 -30 0
-1773 44 0
-1773 1772 0
1773 -44 -1772 0
-1774 1771 0
-1774 1773 0
1774 -1771 -1773 0
-1775 1770 0
-1775 1774 0
1775 -1770 -1774 0
-1776 -1769 0
-1776 -1775 0
1776 1769 1775 0
-1777 1765 0
-1777 -1776 0
1777 -1765 1776 0
-1778 -1764 0
-1778 -1777 0
1778 1764 1777 0
-1779 1760 0
-1779 -1778 0
1779 -1760 1778 0
-1780 -1759 0
-1780 -1779 0
1780 1759 1779 0
-1781 1755 0
-1781 -1780 0
1781 -1755 1780 0
-1782 -1754 0
-1782 -1781 0
1782 1754 1781 0
-1783 1750 0
-1783 -1782 0
1783 -1750 1782 0
-1784 -1749 0
-1784 -1783 0
1784 1749 1783 0
-1785 1745 0
-1785 -1784 0
1785 -1745 1784 0
-1786 -1744 0
-1786 -1785 0
1786 1744 1785 0
-1787 1740 0
-1787 -1786 0
1787 -1740 1786 0
-1788 -1739 0
-1788 -1787 0
1788 1739 1787 0
-1789 1735 0
-1789 -1788 0
1789 -1735 1788 0
-1790 -1734 0
-1790 -1789 0
1790 1734 1789 0
-1791 1730 0
-1791 -1790 0
1791 -1730 1790 0
-1792 -1729 0
-1792 -1791 0
1792 1729 1791 0
-1793 1725 0
-1793 -1792 0
1793 -1725 1792 0
-1794 -1724 0
-1794 -1793 0
1794 1724 1793 0
-1795 1720 0
-1795 -1794 0
1795 -1720 1794 0
-1796 -1719 0
-1796 -1795 0
1796 1719 1795 0
-1797 1715 0
-1797 -1796 0
1797 -1715 1796 0
-1798 -1714 0
-1798 -1797 0
1798 1714 1797 0
-1799 1798 -1710 0
-1799 -1798 1710 0
1799 1798 1710 0
1799 -1798 -1710 0
-1800 43 0
-1800 1712 0
1800 -43 -1712 0
-1801 -1800 -1799 0
-1801 1800 1799 0
1801 -1800 1799 0
1801 1800 -1799 0
-1802 1796 -1715 0
-1802 -1796 1715 0
1802 1796 1715 0
1802 -1796 -1715 0
-1803 43 0
-1803 1717 0
1803 -43 -1717 0
-1804 1802 0
-1804 1803 0
1804 -1802 -1803 0
-1805 -1803 -1802 0
-1805 1803 1802 0
1805 -1803 1802 0
1805 1803 -1802 0
-1806 1794 -1720 0
-1806 -1794 1720 0
1806 1794 1720 0
1806 -1794 -1720 0
-1807 43 0
-1807 1722 0
1807 -43 -1722 0
-1808 1806 0
-1808 1807 0
1808 -1806 -1807 0
-1809 -1807 -1806 0
-1809 1807 1806 0
1809 -1807 1806 0
1809 1807 -1806 0
-1810 1792 -1725 0
-1810 -1792 1725 0
1810 1792 1725 0
1810 -1792 -1725 0
-1811 43 0
-1811 1727 0
1811 -43 -1727 0
-1812 1810 0
-1812 1811 0
1812 -1810 -1811 0
-1813 -1811 -1810 0
-1813 1811 1810 0
1813 -1811 1810 0
1813 1811 -1810 0
-1814 1790 -1730 0
-1814 -1790 1730 0
1814 1790 1730 0
1814 -1790 -1730 0
-1815 43 0
-1815 1732 0
1815 -43 -1732 0
-1816 1814 0
-1816 1815 0
1816 -1814 -1815 0
-1817 -1815 -1814 0
-1817 1815 1814 0
1817 -1815 1814 0
1817 1815 -1814 0
-1818 1788 -1735 0
-1818 -1788 1735 0
1818 1788 1735 0
1818 -1788 -1735 0
-1819 43 0
-1819 1737 0
1819 -43 -1737 0
-1820 1818 0
-1820 1819 0
1820 -1818 -1819 0
-1821 -1819 -1818 0
-1821 1819 1818 0
1821 -1819 1818 0
1821 1819 -1818 0
-1822 1786 -1740 0
-1822 -1786 1740 0
1822 1786 1740 0
1822 -1786 -1740 0
-1823 43 0
-1823 1742 0
1823 -43 -1742 0
-1824 1822 0
-1824 1823 0
1824 -1822 -1823 0
-1825 -1823 -1822 0
-1825 1823 1822 0
1825 -1823 1822 0
1825 1823 -1822 0
-1826 1784 -1745 0
-1826 -1784 1745 0
1826 1784 1745 0
1826 -1784 -1745 0
-1827 43 0
-1827 1747 0
1827 -43 -1747 0
-1828 1826 0
-1828 1827 0
1828 -1826 -1827 0
-1829 -1827 -1826 0
-1829 1827 1826 0
1829 -1827 1826 0
1829 1827 -1826 0
-1830 1782 -1750 0
-1830 -1782 1750 0
1830 1782 1750 0
1830 -1782 -1750 0
-1831 43 0
-1831 1752 0
1831 -43 -1752 0
-1832 1830 0
-1832 1831 0
1832 -1830 -1831 0
-1833 -1831 -1830 0
-1833 1831 1830 0
1833 -1831 1830 0
1833 1831 -1830 0
-1834 1780 -1755 0
-1834 -1780 1755 0
1834 1780 1755 0
1834 -1780 -1755 0
-1835 43 0
-1835 1757 0
1835 -43 -1757 0
-1836 1834 0
-1836 1835 0
1836 -1834 -1835 0
-1837 -1835 -1834 0
-1837 1835 1834 0
1837 -1835 1834 0
1837 1835 -1834 0
-1838 1778 -1760 0
-1838 -1778 1760 0
1838 1778 1760 0
1838 -1778 -1760 0
-1839 43 0
-1839 1762 0
1839 -43 -1762 0
-1840 1838 0
-1840 1839 0
1840 -1838 -1839 0
-1841 -1839 -1838 0
-1841 1839 1838 0
1841 -1839 1838 0
1841 1839 -1838 0
-1842 1776 -1765 0
-1842 -1776 1765 0
1842 1776 1765 0
1842 -1776 -1765 0
-1843 43 0
-1843 1767 0
1843 -43 -1767 0
-1844 1842 0
-1844 1843 0
1844 -1842 -1843 0
-1845 -1843 -1842 0
-1845 1843 1842 0
1845 -1843 1842 0
1845 1843 -1842 0
-1846 -1774 -1770 0
-1846 1774 1770 0
1846 -1774 1770 0
1846 1774 -1770 0
-1847 43 0
-1847 1772 0
1847 -43 -1772 0
-1848 1846 0
-1848 1847 0
1848 -1846 -1847 0
-1849 1845 0
-1849 1848 0
1849 -1845 -1848 0
-1850 -1844 0
-1850 -1849 0
1850 1844 1849 0
-1851 1841 0
-1851 -1850 0
1851 -1841 1850 0
-1852 -1840 0
-1852 -1851 0
1852 1840 1851 0
-1853 1837 0
-1853 -1852 0
1853 -1837 1852 0
-1854 -1836 0
-1854 -1853 0
1854 1836 1853 0
-1855 1833 0
-1855 -1854 0
1855 -1833 1854 0
-1856 -1832 0
-1856 -1855 0
1856 1832 1855 0
-1857 1829 0
-1857 -1856 0
1857 -1829 1856 0
-1858 -1828 0
-1858 -1857 0
1858 1828 1857 0
-1859 1825 0
-1859 -1858 0
1859 -1825 1858 0
-1860 -1824 0
-1860 -1859 0
1860 1824 1859 0
-1861 1821 0
-1861 -1860 0
1861 -1821 1860 0
-1862 -1820 0
-1862 -1861 0
1862 1820 1861 0
-1863 1817 0
-1863 -1862 0
1863 -1817 1862 0
-1864 -1816 0
-1864 -1863 0
1864 1816 1863 0
-1865 1813 0
-1865 -1864 0
1865 -1813 1864 0
-1866 -1812 0
-1866 -1865 0
1866 1812 1865 0
-1867 1809 0
-1867 -1866 0
1867 -1809 1866 0
-1868 -1808 0
-1868 -1867 0
1868 1808 1867 0
-1869 1805 0
-1869 -1868 0
1869 -1805 1868 0
-1870 -1804 0
-1870 -1869 0
1870 1804 1869 0
-1871 1870 -1801 0
-1871 -1870 1801 0
1871 1870 1801 0
1871 -1870 -1801 0
-1872 42 0
-1872 1717 0
1872 -42 -1717 0
-1873 -1872 -1871 0
-1873 1872 1871 0
1873 -1872 1871 0
1873 1872 -1871 0
-1874 1868 -1805 0
-1874 -1868 1805 0
1874 1868 1805 0
1874 -1868 -1805 0
-1875 42 0
-1875 1722 0
1875 -42 -1722 0
-1876 1874 0
-1876 1875 0
1876 -1874 -1875 0
-1877 -1875 -1874 0
-1877 1875 1874 0
1877 -1875 1874 0
1877 1875 -1874 0
-1878 1866 -1809 0
-1878 -1866 1809 0
1878 1866 1809 0
1878 -1866 -1809 0
-1879 42 0
-1879 1727 0
1879 -42 -1727 0
-1880 1878 0
-1880 1879 0
1880 -1878 -1879 0
-1881 -1879 -1878 0
-1881 1879 1878 0
1881 -1879 1878 0
1881 1879 -1878 0
-1882 1864 -1813 0
-1882 -1864 1813 0
1882 1864 1813 0
1882 -1864 -1813 0
-1883 42 0
-1883 1732 0
1883 -42 -1732 0
-1884 1882 0
-1884 1883 0
1884 -1882 -1883 0
-1885 -1883 -1882 0
-1885 1883 1882 0
1885 -1883 1882 0
1885 1883 -1882 0
-1886 1862 -1817 0
-1886 -1862 1817 0
1886 1862 1817 0
1886 -1862 -1817 0
-1887 42 0
-1887 1737 0
1887 -42 -1737 0
-1888 1886 0
-1888 1887 0
1888 -1886 -1887 0
-1889 -1887 -1886 0
-1889 1887 1886 0
1889 -1887 1886 0
1889 1887 -1886 0
-1890 1860 -1821 0
-1890 -1860 1821 0
1890 1860 1821 0
1890 -1860 -1821 0
-1891 42 0
-1891 1742 0
1891 -42 -1742 0
-1892 1890 0
-1892 1891 0
1892 -1890 -1891 0
-1893 -1891 -1890 0
-1893 1891 1890 0
1893 -1891 1890 0
1893 1891 -1890 0
-1894 1858 -1825 0
-1894 -1858 1825 0
1894 1858 1825 0
1894 -1858 -1825 0
-1895 42 0
-1895 1747 0
1895 -42 -1747 0
-1896 1894 0
-1896 1895 0
1896 -1894 -1895 0
-1897 -1895 -1894 0
-1897 1895 1894 0
1897 -1895 1894 0
1897 1895 -1894 0
-1898 1856 -1829 0
-1898 -1856 1829 0
1898 1856 1829 0
1898 -1856 -1829 0
-1899 42 0
-1899 1752 0
1899 -42 -1752 0
-1900 1898 0
-1900 1899 0
1900 -1898 -1899 0
-1901 -1899 -1898 0
-1901 1899 1898 0
1901 -1899 1898 0
1901 1899 -1898 0
-1902 1854 -1833 0
-1902 -1854 1833 0
1902 1854 1833 0
1902 -1854 -1833 0
-1903 42 0
-1903 1757 0
1903 -42 -1757 0
-1904 1902 0
-1904 1903 0
1904 -1902 -1903 0
-1905 -1903 -1902 0
-1905 1903 1902 0
1905 -1903 1902 0
1905 1903 -1902 0
-1906 1852 -1837 0
-1906 -1852 1837 0
1906 1852 1837 0
1906 -1852 -1837 0
-1907 42 0
-1907 1762 0
1907 -42 -1762 0
-1908 1906 0
-1908 1907 0
1908 -1906 -1907 0
-1909 -1907 -1906 0
-1909 1907 1906 0
1909 -1907 1906 0
1909 1907 -1906 0
-1910 1850 -1841 0
-1910 -1850 1841 0
1910 1850 1841 0
1910 -1850 -1841 0
-1911 42 0
-1911 1767 0
1911 -42 -1767 0
-1912 1910 0
-1912 1911 0
1912 -1910 -1911 0
-1913 -1911 -1910 0
-1913 1911 1910 0
1913 -1911 1910 0
1913 1911 -1910 0
-1914 -1848 -1845 0
-1914 1848 1845 0
1914 -1848 1845 0
1914 1848 -1845 0
-1915 42 0
-1915 1772 0
1915 -42 -1772 0
-1916 1914 0
-1916 1915 0
1916 -1914 -1915 0
-1917 1913 0
-1917 1916 0
1917 -1913 -1916 0
-1918 -1912 0
-1918 -1917 0
1918 1912 1917 0
-1919 1909 0
-1919 -1918 0
1919 -1909 1918 0
-1920 -1908 0
-1920 -1919 0
1920 1908 1919 0
-1921 1905 0
-1921 -1920 0
1921 -1905 1920 0
-1922 -1904 0
-1922 -1921 0
1922 1904 1921 0
-1923 1901 0
-1923 -1922 0
1923 -1901 1922 0
-1924 -1900 0
-1924 -1923 0
1924 1900 1923 0
-1925 1897 0
-1925 -1924 0
1925 -1897 1924 0
-1926 -1896 0
-1926 -1925 0
1926 1896 1925 0
-1927 1893 0
-1927 -1926 0
1927 -1893 1926 0
-1928 -1892 0
-1928 -1927 0
1928 1892 1927 0
-1929 1889 0
-1929 -1928 0
1929 -1889 1928 0
-1930 -1888 0
-1930 -1929 0
1930 1888 1929 0
-1931 1885 0
-1931 -1930 0
1931 -1885 1930 0
-1932 -1884 0
-1932 -1931 0
1932 1884 1931 0
-1933 1881 0
-1933 -1932 0
1933 -1881 1932 0
-1934 -1880 0
-1934 -1933 0
1934 1880 1933 0
-1935 1877 0
-1935 -1934 0
1935 -1877 1934 0
-1936 -1876 0
-1936 -1935 0
1936 1876 1935 0
-1937 1936 -1873 0
-1937 -1936 1873 0
1937 1936 1873 0
1937 -1936 -1873 0
-1938 41 0
-1938 1722 0
1938 -41 -1722 0
-1939 -1938 -1937 0
-1939 1938 1937 0
1939 -1938 1937 0
1939 1938 -1937 0
-1940 1934 -1877 0
-1940 -1934 1877 0
1940 1934 1877 0
1940 -1934 -1877 0
-1941 41 0
-1941 1727 0
1941 -41 -1727 0
-1942 1940 0
-1942 1941 0
1942 -1940 -1941 0
-1943 -1941 -1940 0
-1943 1941 1940 0
1943 -1941 1940 0
1943 1941 -1940 0
-1944 1932 -1881 0
-1944 -1932 1881 0
1944 1932 1881 0
1944 -1932 -1881 0
-1945 41 0
-1945 1732 0
1945 -41 -1732 0
-1946 1944 0
-1946 1945 0
1946 -1944 -1945 0
-1947 -1945 -1944 0
-1947 1945 1944 0
1947 -1945 1944 0
1947 1945 -1944 0
-1948 1930 -1885 0
-1948 -1930 1885 0
1948 1930 1885 0
1948 -1930 -1885 0
-1949 41 0
-1949 1737 0
1949 -41 -1737 0
-1950 1948 0
-1950 1949 0
1950 -1948 -1949 0
-1951 -1949 -1948 0
-1951 1949 1948 0
1951 -1949 1948 0
1951 1949 -1948 0
-1952 1928 -1889 0
-1952 -1928 1889 0
1952 1928 1889 0
1952 -1928 -1889 0
-1953 41 0
-1953 1742 0
1953 -41 -1742 0
-1954 1952 0
-1954 1953 0
1954 -1952 -1953 0
-1955 -1953 -1952 0
-1955 1953 1952 0
1955 -1953 1952 0
1955 1953 -1952 0
-1956 1926 -1893 0
-1956 -1926 1893 0
1956 1926 1893 0
1956 -1926 -1893 0
-1957 41 0
-1957 1747 0
1957 -41 -1747 0
-1958 1956 0
-1958 1957 0
1958 -1956 -1957 0
-1959 -1957 -1956 0
-1959 1957 1956 0
1959 -1957 1956 0
1959 1957 -1956 0
-1960 1924 -1897 0
-1960 -1924 1897 0
1960 1924 1897 0
1960 -1924 -1897 0
-1961 41 0
-1961 1752 0
1961 -41 -1752 0
-1962 1960 0
-1962 1961 0
1962 -1960 -1961 0
-1963 -1961 -1960 0
-1963 1961 1960 0
1963 -1961 1960 0
1963 1961 -1960 0
-1964 1922 -1901 0
-1964 -1922 1901 0
1964 1922 1901 0
1964 -1922 -1901 0
-1965 41 0
-1965 1757 0
1965 -41 -1757 0
-1966 1964 0
-1966 1965 0
1966 -1964 -1965 0
-1967 -1965 -1964 0
-1967 1965 1964 0
1967 -1965 1964 0
1967 1965 -1964 0
-1968 1920 -1905 0
-1968 -1920 1905 0
1968 1920 1905 0
1968 -1920 -1905 0
-1969 41 0
-1969 1762 0
1969 -41 -1762 0
-1970 1968 0
-1970 1969 0
1970 -1968 -1969 0
-1971 -1969 -1968 0
-1971 1969 1968 0
1971 -1969 1968 0
1971 1969 -1968 0
-1972 1918 -1909 0
-1972 -1918 1909 0
1972 1918 1909 0
1972 -1918 -1909 0
-1973 41 0
-1973 1767 0
1973 -41 -1767 0
-1974 1972 0
-1974 1973 0
1974 -1972 -1973 0
-1975 -1973 -1972 0
-1975 1973 1972 0
1975 -1973 1972 0
1975 1973 -1972 0
-1976 -1916 -1913 0
-1976 1916 1913 0
1976 -1916 1913 0
1976 1916 -1913 0
-1977 41 0
-1977 1772 0
1977 -41 -1772 0
-1978 1976 0
-1978 1977 0
1978 -1976 -1977 0
-1979 1975 0
-1979 1978 0
1979 -1975 -1978 0
-1980 -1974 0
-1980 -1979 0
1980 1974 1979 0
-1981 1971 0
-1981 -1980 0
1981 -1971 1980 0
-1982 -1970 0
-1982 -1981 0
1982 1970 1981 0
-1983 1967 0
-1983 -1982 0
1983 -1967 1982 0
-1984 -1966 0
-1984 -1983 0
1984 1966 1983 0
-1985 1963 0
-1985 -1984 0
1985 -1963 1984 0
-1986 -1962 0
-1986 -1985 0
1986 1962 1985 0
-1987 1959 0
-1987 -1986 0
1987 -1959 1986 0
-1988 -1958 0
-1988 -1987 0
1988 1958 1987 0
-1989 1955 0
-1989 -1988 0
1989 -1955 1988 0
-1990 -1954 0
-1990 -1989 0
1990 1954 1989 0
-1991 1951 0
-1991 -1990 0
1991 -1951 1990 0
-1992 -1950 0
-1992 -1991 0
1992 1950 1991 0
-1993 1947 0
-1993 -1992 0
1993 -1947 1992 0
-1994 -1946 0
-1994 -1993 0
1994 1946 1993 0
-1995 1943 0
-1995 -1994 0
1995 -1943 1994 0
-1996 -1942 0
-1996 -1995 0
1996 1942 1995 0
-1997 1996 -1939 0
-1997 -1996 1939 0
1997 1996 1939 0
1997 -1996 -1939 0
-1998 40 0
-1998 1727 0
1998 -40 -1727 0
-1999 -1998 -1997 0
-1999 1998 1997 0
1999 -1998 1997 0
1999 1998 -1997 0
-2000 1994 -1943 0
-2000 -1994 1943 0
2000 1994 1943 0
2000 -1994 -1943 0
-2001 40 0
-2001 1732 0
2001 -40 -1732 0
-2002 2000 0
-2002 2001 0
2002 -2000 -2001 0
-2003 -2001 -2000 0
-2003 2001 2000 0
2003 -2001 2000 0
2003 2001 -2000 0
-2004 1992 -1947 0
-2004 -1992 1947 0
2004 1992 1947 0
2004 -1992 -1947 0
-2005 40 0
-2005 1737 0
2005 -40 -1737 0
-2006 2004 0
-2006 2005 0
2006 -2004 -2005 0
-2007 -2005 -2004 0
-2007 2005 2004 0
2007 -2005 2004 0
2007 2005 -2004 0
-2008 1990 -1951 0
-2008 -1990 1951 0
2008 1990 1951 0
2008 -1990 -1951 0
-2009 40 0
-2009 1742 0
2009 -40 -1742 0
-2010 2008 0
-2010 2009 0
2010 -2008 -2009 0
-2011 -2009 -2008 0
-2011 2009 2008 0
2011 -2009 2008 0
2011 2009 -2008 0
-2012 1988 -1955 0
-2012 -1988 1955 0
2012 1988 1955 0
2012 -1988 -1955 0
-2013 40 0
-2013 1747 0
2013 -40 -1747 0
-2014 2012 0
-2014 2013 0
2014 -2012 -2013 0
-2015 -2013 -2012 0
-2015 2013 2012 0
2015 -2013 2012 0
2015 2013 -2012 0
-2016 1986 -1959 0
-2016 -1986 1959 0
2016 1986 1959 0
2016 -1986 -1959 0
-2017 40 0
-2017 1752 0
2017 -40 -1752 0
-2018 2016 0
-2018 2017 0
2018 -2016 -2017 0
-2019 -2017 -2016 0
-2019 2017 2016 0
2019 -2017 2016 0
2019 2017 -2016 0
-2020 1984 -1963 0
-2020 -1984 1963 0
2020 1984 1963 0
2020 -1984 -1963 0
-2021 40 0
-2021 1757 0
2021 -40 -1757 0
-2022 2020 0
-2022 2021 0
2022 -2020 -2021 0
-2023 -2021 -2020 0
-2023 2021 2020 0
2023 -2021 2020 0
2023 2021 -2020 0
-2024 1982 -1967 0
-2024 -1982 1967 0
2024 1982 1967 0
2024 -1982 -1967 0
-2025 40 0
-2025 1762 0
2025 -40 -1762 0
-2026 2024 0
-2026 2025 0
2026 -2024 -2025 0
-2027 -2025 -2024 0
-2027 2025 2024 0
2027 -2025 2024 0
2027 2025 -2024 0
-2028 1980 -1971 0
-2028 -1980 1971 0
2028 1980 1971 0
2028 -1980 -1971 0
-2029 40 0
-2029 1767 0
2029 -40 -1767 0
-2030 2028 0
-2030 2029 0
2030 -2028 -2029 0
-2031 -2029 -2028 0
-2031 2029 2028 0
2031 -2029 2028 0
2031 2029 -2028 0
-2032 -1978 -1975 0
-2032 1978 1975 0
2032 -1978 1975 0
2032 1978 -1975 0
-2033 40 0
-2033 1772 0
2033 -40 -1772 0
-2034 2032 0
-2034 2033 0
2034 -2032 -2033 0
-2035 2031 0
-2035 2034 0
2035 -2031 -2034 0
-2036 -2030 0
-2036 -2035 0
2036 2030 2035 0
-2037 2027 0
-2037 -2036 0
2037 -2027 2036 0
-2038 -2026 0
-2038 -2037 0
2038 2026 2037 0
-2039 2023 0
-2039 -2038 0
2039 -2023 2038 0
-2040 -2022 0
-2040 -2039 0
2040 2022 2039 0
-2041 2019 0
-2041 -2040 0
2041 -2019 2040 0
-2042 -2018 0
-2042 -2041 0
2042 2018 2041 0
-2043 2015 0
-2043 -2042 0
2043 -2015 2042 0
-2044 -2014 0
-2044 -2043 0
2044 2014 2043 0
-2045 2011 0
-2045 -2044 0
2045 -2011 2044 0
-2046 -2010 0
-2046 -2045 0
2046 2010 2045 0
-2047 2007 0
-2047 -2046 0
2047 -2007 2046 0
-2048 -2006 0
-2048 -2047 0
2048 2006 2047 0
-2049 2003 0
-2049 -2048 0
2049 -2003 2048 0
-2050 -2002 0
-2050 -2049 0
2050 2002 2049 0
-2051 2050 -1999 0
-2051 -2050 1999 0
2051 2050 1999 0
2051 -2050 -1999 0
-2052 39 0
-2052 1732 0
2052 -39 -1732 0
-2053 -2052 -2051 0
-2053 2052 2051 0
2053 -2052 2051 0
2053 2052 -2051 0
-2054 2048 -2003 0
-2054 -2048 2003 0
2054 2048 2003 0
2054 -2048 -2003 0
-2055 39 0
-2055 1737 0
2055 -39 -1737 0
-2056 2054 0
-2056 2055 0
2056 -2054 -2055 0
-2057 -2055 -2054 0
-2057 2055 2054 0
2057 -2055 2054 0
2057 2055 -2054 0
-2058 2046 -2007 0
-2058 -2046 2007 0
2058 2046 2007 0
2058 -2046 -2007 0
-2059 39 0
-2059 1742 0
2059 -39 -1742 0
-2060 2058 0
-2060 2059 0
2060 -2058 -2059 0
-2061 -2059 -2058 0
-2061 2059 2058 0
2061 -2059 2058 0
2061 2059 -2058 0
-2062 2044 -2011 0
-2062 -2044 2011 0
2062 2044 2011 0
2062 -2044 -2011 0
-2063 39 0
-2063 1747 0
2063 -39 -1747 0
-2064 2062 0
-2064 2063 0
2064 -2062 -2063 0
-2065 -2063 -2062 0
-2065 2063 2062 0
2065 -2063 2062 0
2065 2063 -2062 0
-2066 2042 -2015 0
-2066 -2042 2015 0
2066 2042 2015 0
2066 -2042 -2015 0
-2067 39 0
-2067 1752 0
2067 -39 -1752 0
-2068 2066 0
-2068 2067 0
2068 -2066 -2067 0
-2069 -2067 -2066 0
-2069 2067 2066 0
2069 -2067 2066 0
2069 2067 -2066 0
-2070 2040 -2019 0
-2070 -2040 2019 0
2070 2040 2019 0
2070 -2040 -2019 0
-2071 39 0
-2071 1757 0
2071 -39 -1757 0
-2072 2070 0
-2072 2071 0
2072 -2070 -2071 0
-2073 -2071 -2070 0
-2073 2071 2070 0
2073 -2071 2070 0
2073 2071 -2070 0
-2074 2038 -2023 0
-2074 -2038 2023 0
2074 2038 2023 0
2074 -2038 -2023 0
-2075 39 0
-2075 1762 0
2075 -39 -1762 0
-2076 2074 0
-2076 2075 0
2076 -2074 -2075 0
-2077 -2075 -2074 0
-2077 2075 2074 0
2077 -2075 2074 0
2077 2075 -2074 0
-2078 2036 -2027 0
-2078 -2036 2027 0
2078 2036 2027 0
2078 -2036 -2027 0
-2079 39 0
-2079 1767 0
2079 -39 -1767 0
-2080 2078 0
-2080 2079 0
2080 -2078 -2079 0
-2081 -2079 -2078 0
-2081 2079 2078 0
2081 -2079 2078 0
2081 2079 -2078 0
-2082 -2034 -2031 0
-2082 2034 2031 0
2082 -2034 2031 0
2082 2034 -2031 0
-2083 39 0
-2083 1772 0
2083 -39 -1772 0
-2084 2082 0
-2084 2083 0
2084 -2082 -2083 0
-2085 2081 0
-2085 2084 0
2085 -2081 -2084 0
-2086 -2080 0
-2086 -2085 0
2086 2080 2085 0
-2087 2077 0
-2087 -2086 0
2087 -2077 2086 0
-2088 -2076 0
-2088 -2087 0
2088 2076 2087 0
-2089 2073 0
-2089 -2088 0
2089 -2073 2088 0
-2090 -2072 0
-2090 -2089 0
2090 2072 2089 0
-2091 2069 0
-2091 -2090 0
2091 -2069 2090 0
-2092 -2068 0
-2092 -2091 0
2092 2068 2091 0
-2093 2065 0
-2093 -2092 0
2093 -2065 2092 0
-2094 -2064 0
-2094 -2093 0
2094 2064 2093 0
-2095 2061 0
-2095 -2094 0
2095 -2061 2094 0
-2096 -2060 0
-2096 -2095 0
2096 2060 2095 0
-2097 2057 0
-2097 -2096 0
2097 -2057 2096 0
-2098 -2056 0
-2098 -2097 0
2098 2056 2097 0
-2099 2098 -2053 0
-2099 -2098 2053 0
2099 2098 2053 0
2099 -2098 -2053 0
-2100 38 0
-2100 1737 0
2100 -38 -1737 0
-2101 -2100 -2099 0
-2101 2100 2099 0
2101 -2100 2099 0
2101 2100 -2099 0
-2102 2096 -2057 0
-2102 -2096 2057 0
2102 2096 2057 0
2102 -2096 -2057 0
-2103 38 0
-2103 1742 0
2103 -38 -1742 0
-2104 2102 0
-2104 2103 0
2104 -2102 -2103 0
-2105 -2103 -2102 0
-2105 2103 2102 0
2105 -2103 2102 0
2105 2103 -2102 0
-2106 2094 -2061 0
-2106 -2094 2061 0
2106 2094 2061 0
2106 -2094 -2061 0
-2107 38 0
-2107 1747 0
2107 -38 -1747 0
-2108 2106 0
-2108 2107 0
2108 -2106 -2107 0
-2109 -2107 -2106 0
-2109 2107 2106 0
2109 -2107 2106 0
2109 2107 -2106 0
-2110 2092 -2065 0
-2110 -2092 2065 0
2110 2092 2065 0
2110 -2092 -2065 0
-2111 38 0
-2111 1752 0
2111 -38 -1752 0
-2112 2110 0
-2112 2111 0
2112 -2110 -2111 0
-2113 -2111 -2110 0
-2113 2111 2110 0
2113 -2111 2110 0
2113 2111 -2110 0
-2114 2090 -2069 0
-2114 -2090 2069 0
2114 2090 2069 0
2114 -2090 -2069 0
-2115 38 0
-2115 1757 0
2115 -38 -1757 0
-2116 2114 0
-2116 2115 0
2116 -2114 -2115 0
-2117 -2115 -2114 0
-2117 2115 2114 0
2117 -2115 2114 0
2117 2115 -2114 0
-2118 2088 -2073 0
-2118 -2088 2073 0
2118 2088 2073 0
2118 -2088 -2073 0
-2119 38 0
-2119 1762 0
2119 -38 -1762 0
-2120 2118 0
-2120 2119 0
2120 -2118 -2119 0
-2121 -2119 -2118 0
-2121 2119 2118 0
2121 -2119 2118 0
2121 2119 -2118 0
-2122 2086 -2077 0
-2122 -2086 2077 0
2122 2086 2077 0
2122 -2086 -2077 0
-2123 38 0
-2123 1767 0
2123 -38 -1767 0
-2124 2122 0
-2124 2123 0
2124 -2122 -2123 0
-2125 -2123 -2122 0
-2125 2123 2122 0
2125 -2123 2122 0
2125 2123 -2122 0
-2126 -2084 -2081 0
-2126 2084 2081 0
2126 -2084 2081 0
2126 2084 -2081 0
-2127 38 0
-2127 1772 0
2127 -38 -1772 0
-2128 2126 0
-2128 2127 0
2128 -2126 -2127 0
-2129 2125 0
-2129 2128 0
2129 -2125 -2128 0
-2130 -2124 0
-2130 -2129 0
2130 2124 2129 0
-2131 2121 0
-2131 -2130 0
2131 -2121 2130 0
-2132 -2120 0
-2132 -2131 0
2132 2120 2131 0
-2133 2117 0
-2133 -2132 0
2133 -2117 2132 0
-2134 -2116 0
-2134 -2133 0
2134 2116 2133 0
-2135 2113 0
-2135 -2134 0
2135 -2113 2134 0
-2136 -2112 0
-2136 -2135 0
2136 2112 2135 0
-2137 2109 0
-2137 -2136 0
2137 -2109 2136 0
-2138 -2108 0
-2138 -2137 0
2138 2108 2137 0
-2139 2105 0
-2139 -2138 0
2139 -2105 2138 0
-2140 -2104 0
-2140 -2139 0
2140 2104 2139 0
-2141 2140 -2101 0
-2141 -2140 2101 0
2141 2140 2101 0
2141 -2140 -2101 0
-2142 37 0
-2142 1742 0
2142 -37 -1742 0
-2143 -2142 -2141 0
-2143 2142 2141 0
2143 -2142 2141 0
2143 2142 -2141 0
-2144 2138 -2105 0
-2144 -2138 2105 0
2144 2138 2105 0
2144 -2138 -2105 0
-2145 37 0
-2145 1747 0
2145 -37 -1747 0
-2146 2144 0
-2146 2145 0
2146 -2144 -2145 0
-2147 -2145 -2144 0
-2147 2145 2144 0
2147 -2145 2144 0
2147 2145 -2144 0
-2148 2136 -2109 0
-2148 -2136 2109 0
2148 2136 2109 0
2148 -2136 -2109 0
-2149 37 0
-2149 1752 0
2149 -37 -1752 0
-2150 2148 0
-2150 2149 0
2150 -2148 -2149 0
-2151 -2149 -2148 0
-2151 2149 2148 0
2151 -2149 2148 0
2151 2149 -2148 0
-2152 2134 -2113 0
-2152 -2134 2113 0
2152 2134 2113 0
2152 -2134 -2113 0
-2153 37 0
-2153 1757 0
2153 -37 -1757 0
-2154 2152 0
-2154 2153 0
2154 -2152 -2153 0
-2155 -2153 -2152 0
-2155 2153 2152 0
2155 -2153 2152 0
2155 2153 -2152 0
-2156 2132 -2117 0
-2156 -2132 2117 0
2156 2132 2117 0
2156 -2132 -2117 0
-2157 37 0
-2157 1762 0
2157 -37 -1762 0
-2158 2156 0
-2158 2157 0
2158 -2156 -2157 0
-2159 -2157 -2156 0
-2159 2157 2156 0
2159 -2157 2156 0
2159 2157 -2156 0
-2160 2130 -2121 0
-2160 -2130 2121 0
2160 2130 2121 0
2160 -2130 -2121 0
-2161 37 0
-2161 1767 0
2161 -37 -1767 0
-2162 2160 0
-2162 2161 0
2162 -2160 -2161 0
-2163 -2161 -2160 0
-2163 2161 2160 0
2163 -2161 2160 0
2163 2161 -2160 0
-2164 -2128 -2125 0
-2164 2128 2125 0
2164 -2128 2125 0
2164 2128 -2125 0
-2165 37 0
-2165 1772 0
2165 -37 -1772 0
-2166 2164 0
-2166 2165 0
2166 -2164 -2165 0
-2167 2163 0
-2167 2166 0
2167 -2163 -2166 0
-2168 -2162 0
-2168 -2167 0
2168 2162 2167 0
-2169 2159 0
-2169 -2168 0
2169 -2159 2168 0
-2170 -2158 0
-2170 -2169 0
2170 2158 2169 0
-2171 2155 0
-2171 -2170 0
2171 -2155 2170 0
-2172 -2154 0
-2172 -2171 0
2172 2154 2171 0
-2173 2151 0
-2173 -2172 0
2173 -2151 2172 0
-2174 -2150 0
-2174 -2173 0
2174 2150 2173 0
-2175 2147 0
-2175 -2174 0
2175 -2147 2174 0
-2176 -2146 0
-2176 -2175 0
2176 2146 2175 0
-2177 2176 -2143 0
-2177 -2176 2143 0
2177 2176 2143 0
2177 -2176 -2143 0
-2178 36 0
-2178 1747 0
2178 -36 -1747 0
-2179 -2178 -2177 0
-2179 2178 2177 0
2179 -2178 2177 0
2179 2178 -2177 0
-2180 2174 -2147 0
-2180 -2174 2147 0
2180 2174 2147 0
2180 -2174 -2147 0
-2181 36 0
-2181 1752 0
2181 -36 -1752 0
-2182 2180 0
-2182 2181 0
2182 -2180 -2181 0
-2183 -2181 -2180 0
-2183 2181 2180 0
2183 -2181 2180 0
2183 2181 -2180 0
-2184 2172 -2151 0
-2184 -2172 2151 0
2184 2172 2151 0
2184 -2172 -2151 0
-2185 36 0
-2185 1757 0
2185 -36 -1757 0
-2186 2184 0
-2186 2185 0
2186 -2184 -2185 0
-2187 -2185 -2184 0
-2187 2185 2184 0
2187 -2185 2184 0
2187 2185 -2184 0
-2188 2170 -2155 0
-2188 -2170 2155 0
2188 2170 2155 0
2188 -2170 -2155 0
-2189 36 0
-2189 1762 0
2189 -36 -1762 0
-2190 2188 0
-2190 2189 0
2190 -2188 -2189 0
-2191 -2189 -2188 0
-2191 2189 2188 0
2191 -2189 2188 0
2191 2189 -2188 0
-2192 2168 -2159 0
-2192 -2168 2159 0
2192 2168 2159 0
2192 -2168 -2159 0
-2193 36 0
-2193 1767 0
2193 -36 -1767 0
-2194 2192 0
-2194 2193 0
2194 -2192 -2193 0
-2195 -2193 -2192 0
-2195 2193 2192 0
2195 -2193 2192 0
2195 2193 -2192 0
-2196 -2166 -2163 0
-2196 2166 2163 0
2196 -2166 2163 0
2196 2166 -2163 0
-2197 36 0
-2197 1772 0
2197 -36 -1772 0
-2198 2196 0
-2198 2197 0
2198 -2196 -2197 0
-2199 2195 0
-2199 2198 0
2199 -2195 -2198 0
-2200 -2194 0
-2200 -2199 0
2200 2194 2199 0
-2201 2191 0
-2201 -2200 0
2201 -2191 2200 0
-2202 -2190 0
-2202 -2201 0
2202 2190 2201 0
-2203 2187 0
-2203 -2202 0
2203 -2187 2202 0
-2204 -2186 0
-2204 -2203 0
2204 2186 2203 0
-2205 2183 0
-2205 -2204 0
2205 -2183 2204 0
-2206 -2182 0
-2206 -2205 0
2206 2182 2205 0
-2207 2206 -2179 0
-2207 -2206 2179 0
2207 2206 2179 0
2207 -2206 -2179 0
-2208 35 0
-2208 1752 0
2208 -35 -1752 0
-2209 -2208 -2207 0
-2209 2208 2207 0
2209 -2208 2207 0
2209 2208 -2207 0
-2210 2204 -2183 0
-2210 -2204 2183 0
2210 2204 2183 0
2210 -2204 -2183 0
-2211 35 0
-2211 1757 0
2211 -35 -1757 0
-2212 2210 0
-2212 2211 0
2212 -2210 -2211 0
-2213 -2211 -2210 0
-2213 2211 2210 0
2213 -2211 2210 0
2213 2211 -2210 0
-2214 2202 -2187 0
-2214 -2202 2187 0
2214 2202 2187 0
2214 -2202 -2187 0
-2215 35 0
-2215 1762 0
2215 -35 -1762 0
-2216 2214 0
-2216 2215 0
2216 -2214 -2215 0
-2217 -2215 -2214 0
-2217 2215 2214 0
2217 -2215 2214 0
2217 2215 -2214 0
-2218 2200 -2191 0
-2218 -2200 2191 0
2218 2200 2191 0
2218 -2200 -2191 0
-2219 35 0
-2219 1767 0
2219 -35 -1767 0
-2220 2218 0
-2220 2219 0
2220 -2218 -2219 0
-2221 -2219 -2218 0
-2221 2219 2218 0
2221 -2219 2218 0
2221 2219 -2218 0
-2222 -2198 -2195 0
-2222 2198 2195 0
2222 -2198 2195 0
2222 2198 -2195 0
-2223 35 0
-2223 1772 0
2223 -35 -1772 0
-2224 2222 0
-2224 2223 0
2224 -2222 -2223 0
-2225 2221 0
-2225 2224 0
2225 -2221 -2224 0
-2226 -2220 0
-2226 -2225 0
2226 2220 2225 0
-2227 2217 0
-2227 -2226 0
2227 -2217 2226 0
-2228 -2216 0
-2228 -2227 0
2228 2216 2227 0
-2229 2213 0
-2229 -2228 0
2229 -2213 2228 0
-2230 -2212 0
-2230 -2229 0
2230 2212 2229 0
-2231 2230 -2209 0
-2231 -2230 2209 0
2231 2230 2209 0
2231 -2230 -2209 0
-2232 34 0
-2232 1757 0
2232 -34 -1757 0
-2233 -2232 -2231 0
-2233 2232 2231 0
2233 -2232 2231 0
2233 2232 -2231 0
-2234 2228 -2213 0
-2234 -2228 2213 0
2234 2228 2213 0
2234 -2228 -2213 0
-2235 34 0
-2235 1762 0
2235 -34 -1762 0
-2236 2234 0
-2236 2235 0
2236 -2234 -2235 0
-2237 -2235 -2234 0
-2237 2235 2234 0
2237 -2235 2234 0
2237 2235 -2234 0
-2238 2226 -2217 0
-2238 -2226 2217 0
2238 2226 2217 0
2238 -2226 -2217 0
-2239 34 0
-2239 1767 0
2239 -34 -1767 0
-2240 2238 0
-2240 2239 0
2240 -2238 -2239 0
-2241 -2239 -2238 0
-2241 2239 2238 0
2241 -2239 2238 0
2241 2239 -2238 0
-2242 -2224 -2221 0
-2242 2224 2221 0
2242 -2224 2221 0
2242 2224 -2221 0
-2243 34 0
-2243 1772 0
2243 -34 -1772 0
-2244 2242 0
-2244 2243 0
2244 -2242 -2243 0
-2245 2241 0
-2245 2244 0
2245 -2241 -2244 0
-2246 -2240 0
-2246 -2245 0
2246 2240 2245 0
-2247 2237 0
-2247 -2246 0
2247 -2237 2246 0
-2248 -2236 0
-2248 -2247 0
2248 2236 2247 0
-2249 2248 -2233 0
-2249 -2248 2233 0
2249 2248 2233 0
2249 -2248 -2233 0
-2250 33 0
-2250 1762 0
2250 -33 -1762 0
-2251 -2250 -2249 0
-2251 2250 2249 0
2251 -2250 2249 0
2251 2250 -2249 0
-2252 2246 -2237 0
-2252 -2246 2237 0
2252 2246 2237 0
2252 -2246 -2237 0
-2253 33 0
-2253 1767 0
2253 -33 -1767 0
-2254 2252 0
-2254 2253 0
2254 -2252 -2253 0
-2255 -2253 -2252 0
-2255 2253 2252 0
2255 -2253 2252 0
2255 2253 -2252 0
-2256 -2244 -2241 0
-2256 2244 2241 0
2256 -2244 2241 0
2256 2244 -2241 0
-2257 33 0
-2257 1772 0
2257 -33 -1772 0
-2258 2256 0
-2258 2257 0
2258 -2256 -2257 0
-2259 2255 0
-2259 2258 0
2259 -2255 -2258 0
-2260 -2254 0
-2260 -2259 0
2260 2254 2259 0
-2261 2260 -2251 0
-2261 -2260 2251 0
2261 2260 2251 0
2261 -2260 -2251 0
-2262 32 0
-2262 1767 0
2262 -32 -1767 0
-2263 -2262 -2261 0
-2263 2262 2261 0
2263 -2262 2261 0
2263 2262 -2261 0
-2264 -2258 -2255 0
-2264 2258 2255 0
2264 -2258 2255 0
2264 2258 -2255 0
-2265 32 0
-2265 1772 0
2265 -32 -1772 0
-2266 2264 0
-2266 2265 0
2266 -2264 -2265 0
-2267 -2266 -2263 0
-2267 2266 2263 0
2267 -2266 2263 0
2267 2266 -2263 0
-2268 31 0
-2268 1772 0
2268 -31 -1772 0
-2269 -2268 -2267 0
-2269 2268 2267 0
2269 -2268 2267 0
2269 2268 -2267 0
2270 2269 1157 0
2270 -2269 -1157 0
-2271 -1099 -1098 0
-2271 1099 1098 0
2271 -1099 1098 0
2271 1099 -1098 0
-2272 -2265 -2264 0
-2272 2265 2264 0
2272 -2265 2264 0
2272 2265 -2264 0
2273 2272 2271 0
2273 -2272 -2271 0
2274 -2270 -2273 0
-2275 -1016 -1015 0
-2275 1016 1015 0
2275 -1016 1015 0
2275 1016 -1015 0
-2276 -2257 -2256 0
-2276 2257 2256 0
2276 -2257 2256 0
2276 2257 -2256 0
2277 2276 2275 0
2277 -2276 -2275 0
2278 -2274 -2277 0
-2279 -933 -932 0
-2279 933 932 0
2279 -933 932 0
2279 933 -932 0
-2280 -2243 -2242 0
-2280 2243 2242 0
2280 -2243 2242 0
2280 2243 -2242 0
2281 2280 2279 0
2281 -2280 -2279 0
2282 -2278 -2281 0
-2283 -850 -849 0
-2283 850 849 0
2283 -850 849 0
2283 850 -849 0
-2284 -2223 -2222 0
-2284 2223 2222 0
2284 -2223 2222 0
2284 2223 -2222 0
2285 2284 2283 0
2285 -2284 -2283 0
2286 -2282 -2285 0
-2287 -767 -766 0
-2287 767 766 0
2287 -767 766 0
2287 767 -766 0
-2288 -2197 -2196 0
-2288 2197 2196 0
2288 -2197 2196 0
2288 2197 -2196 0
2289 2288 2287 0
2289 -2288 -2287 0
2290 -2286 -2289 0
-2291 -684 -683 0
-2291 684 683 0
2291 -684 683 0
2291 684 -683 0
-2292 -2165 -2164 0
-2292 2165 2164 0
2292 -2165 2164 0
2292 2165 -2164 0
2293 2292 2291 0
2293 -2292 -2291 0
2294 -2290 -2293 0
-2295 -601 -600 0
-2295 601 600 0
2295 -601 600 0
2295 601 -600 0
-2296 -2127 -2126 0
-2296 2127 2126 0
2296 -2127 2126 0
2296 2127 -2126 0
2297 2296 2295 0
2297 -2296 -2295 0
2298 -2294 -2297 0
-2299 -518 -517 0
-2299 518 517 0
2299 -518 517 0
2299 518 -517 0
-2300 -2083 -2082 0
-2300 2083 2082 0
2300 -2083 2082 0
2300 2083 -2082 0
2301 2300 2299 0
2301 -2300 -2299 0
2302 -2298 -2301 0
-2303 -435 -434 0
-2303 435 434 0
2303 -435 434 0
2303 435 -434 0
-2304 -2033 -2032 0
-2304 2033 2032 0
2304 -2033 2032 0
2304 2033 -2032 0
2305 2304 2303 0
2305 -2304 -2303 0
2306 -2302 -2305 0
-2307 -352 -351 0
-2307 352 351 0
2307 -352 351 0
2307 352 -351 0
-2308 -1977 -1976 0
-2308 1977 1976 0
2308 -1977 1976 0
2308 1977 -1976 0
2309 2308 2307 0
2309 -2308 -2307 0
2310 -2306 -2309 0
-2311 -269 -268 0
-2311 269 268 0
2311 -269 268 0
2311 269 -268 0
-2312 -1915 -1914 0
-2312 1915 1914 0
2312 -1915 1914 0
2312 1915 -1914 0
2313 2312 2311 0
2313 -2312 -2311 0
2314 -2310 -2313 0
-2315 -186 -185 0
-2315 186 185 0
2315 -186 185 0
2315 186 -185 0
-2316 -1847 -1846 0
-2316 1847 1846 0
2316 -1847 1846 0
2316 1847 -1846 0
2317 2316 2315 0
2317 -2316 -2315 0
2318 -2314 -2317 0
-2319 -103 -102 0
-2319 103 102 0
2319 -103 102 0
2319 103 -102 0
-2320 -1773 -1771 0
-2320 1773 1771 0
2320 -1773 1771 0
2320 1773 -1771 0
2321 2320 2319 0
2321 -2320 -2319 0
2322 -2318 -2321 0
-2323 15 0
-2323 46 0
2323 -15 -46 0
-2324 45 0
-2324 1772 0
2324 -45 -1772 0
2325 2324 2323 0
2325 -2324 -2323 0
2326 -2322 -2325 0
2327 -44 -45 0
2328 -43 -2327 0
-2329 -42 0
-2329 -2328 0
-2330 -41 0
-2330 2329 0
2331 -40 2330 0
2332 -39 -2331 0
-2333 -38 0
-2333 -2332 0
2334 -37 2333 0
2335 -36 -2334 0
2336 -35 -2335 0
2337 -34 -2336 0
-2338 -33 0
-2338 -2337 0
2339 -32 2338 0
-2340 -31 0
-2340 -2339 0
2341 -14 -15 0
2342 -13 -2341 0
-2343 -12 0
-2343 -2342 0
-2344 -11 0
-2344 2343 0
2345 -10 2344 0
2346 -9 -2345 0
-2347 -8 0
-2347 -2346 0
2348 -7 2347 0
2349 -6 -2348 0
2350 -5 -2349 0
2351 -4 -2350 0
-2352 -3 0
-2352 -2351 0
2353 -2 2352 0
-2354 -1 0
-2354 -2353 0
2355 -29 -30 0
2356 -28 -2355 0
-2357 -27 0
-2357 -2356 0
-2358 -26 0
-2358 2357 0
2359 -25 2358 0
2360 -24 -2359 0
-2361 -23 0
-2361 -2360 0
2362 -22 2361 0
2363 -21 -2362 0
2364 -20 -2363 0
2365 -19 -2364 0
-2366 -18 0
-2366 -2365 0
2367 -17 2366 0
-2368 -16 0
-2368 -2367 0
-2369 2354 0
-2369 2368 0
-2370 2340 0
-2370 2369 0
-2371 -2326 0
-2371 2370 0
2371 0
