p cnf 448 1380
-22 19 0
-22 20 0
22 -19 -20 0
-23 1 0
-23 22 0
23 -1 -22 0
-24 12 0
-24 20 0
24 -12 -20 0
-25 18 0
-25 19 0
25 -18 -19 0
-26 24 0
-26 25 0
26 -24 -25 0
-27 -25 -24 0
-27 25 24 0
27 -25 24 0
27 25 -24 0
-28 2 0
-28 27 0
28 -2 -27 0
-29 -28 -23 0
-29 28 23 0
29 -28 23 0
29 28 -23 0
-30 2 0
-30 22 0
30 -2 -22 0
-31 3 0
-31 27 0
31 -3 -27 0
-32 30 0
-32 31 0
32 -30 -31 0
-33 -31 -30 0
-33 31 30 0
33 -31 30 0
33 31 -30 0
-34 3 0
-34 22 0
34 -3 -22 0
-35 4 0
-35 27 0
35 -4 -27 0
-36 34 0
-36 35 0
36 -34 -35 0
-37 -35 -34 0
-37 35 34 0
37 -35 34 0
37 35 -34 0
-38 4 0
-38 22 0
38 -4 -22 0
-39 5 0
-39 27 0
39 -5 -27 0
-40 38 0
-40 39 0
40 -38 -39 0
-41 -39 -38 0
-41 39 38 0
41 -39 38 0
41 39 -38 0
-42 5 0
-42 22 0
42 -5 -22 0
-43 6 0
-43 27 0
43 -6 -27 0
-44 42 0
-44 43 0
44 -42 -43 0
-45 -43 -42 0
-45 43 42 0
45 -43 42 0
45 43 -42 0
-46 6 0
-46 22 0
46 -6 -22 0
-47 21 0
-47 27 0
47 -21 -27 0
-48 46 0
-48 47 0
48 -46 -47 0
-49 45 0
-49 48 0
49 -45 -48 0
-50 -44 0
-50 -49 0
50 44 49 0
-51 41 0
-51 -50 0
51 -41 50 0
-52 -40 0
-52 -51 0
52 40 51 0
-53 37 0
-53 -52 0
53 -37 52 0
-54 -36 0
-54 -53 0
54 36 53 0
-55 33 0
-55 -54 0
55 -33 54 0
-56 -32 0
-56 -55 0
56 32 55 0
-57 56 -29 0
-57 -56 29 0
57 56 29 0
57 -56 -29 0
-58 11 0
-58 20 0
58 -11 -20 0
-59 12 0
-59 18 0
59 -12 -18 0
-60 58 0
-60 59 0
60 -58 -59 0
-61 -59 -58 0
-61 59 58 0
61 -59 58 0
61 59 -58 0
-62 26 0
-62 61 0
62 -26 -61 0
-63 -61 -26 0
-63 61 26 0
63 -61 26 0
63 61 -26 0
-64 17 0
-64 19 0
64 -17 -19 0
-65 63 0
-65 64 0
65 -63 -64 0
-66 -64 -63 0
-66 64 63 0
66 -64 63 0
66 64 -63 0
-67 3 0
-67 66 0
67 -3 -66 0
-68 -67 -57 0
-68 67 57 0
68 -67 57 0
68 67 -57 0
-69 54 -33 0
-69 -54 33 0
69 54 33 0
69 -54 -33 0
-70 4 0
-70 66 0
70 -4 -66 0
-71 69 0
-71 70 0
71 -69 -70 0
-72 -70 -69 0
-72 70 69 0
72 -70 69 0
72 70 -69 0
-73 52 -37 0
-73 -52 37 0
73 52 37 0
73 -52 -37 0
-74 5 0
-74 66 0
74 -5 -66 0
-75 73 0
-75 74 0
75 -73 -74 0
-76 -74 -73 0
-76 74 73 0
76 -74 73 0
76 74 -73 0
-77 50 -41 0
-77 -50 41 0
77 50 41 0
77 -50 -41 0
-78 6 0
-78 66 0
78 -6 -66 0
-79 77 0
-79 78 0
79 -77 -78 0
-80 -78 -77 0
-80 78 77 0
80 -78 77 0
80 78 -77 0
-81 -48 -45 0
-81 48 45 0
81 -48 45 0
81 48 -45 0
-82 21 0
-82 66 0
82 -21 -66 0
-83 81 0
-83 82 0
83 -81 -82 0
-84 80 0
-84 83 0
84 -80 -83 0
-85 -79 0
-85 -84 0
85 79 84 0
-86 76 0
-86 -85 0
86 -76 85 0
-87 -75 0
-87 -86 0
87 75 86 0
-88 72 0
-88 -87 0
88 -72 87 0
-89 -71 0
-89 -88 0
89 71 88 0
-90 89 -68 0
-90 -89 68 0
90 89 68 0
90 -89 -68 0
-91 10 0
-91 20 0
91 -10 -20 0
-92 11 0
-92 18 0
92 -11 -18 0
-93 91 0
-93 92 0
93 -91 -92 0
-94 -92 -91 0
-94 92 91 0
94 -92 91 0
94 92 -91 0
-95 -60 0
-95 -62 0
95 60 62 0
-96 94 0
-96 -95 0
96 -94 95 0
-97 95 -94 0
-97 -95 94 0
97 95 94 0
97 -95 -94 0
-98 12 0
-98 17 0
98 -12 -17 0
-99 97 0
-99 98 0
99 -97 -98 0
-100 -98 -97 0
-100 98 97 0
100 -98 97 0
100 98 -97 0
-101 65 0
-101 100 0
101 -65 -100 0
-102 -100 -65 0
-102 100 65 0
102 -100 65 0
102 100 -65 0
-103 16 0
-103 19 0
103 -16 -19 0
-104 102 0
-104 103 0
104 -102 -103 0
-105 -103 -102 0
-105 103 102 0
105 -103 102 0
105 103 -102 0
-106 4 0
-106 105 0
106 -4 -105 0
-107 -106 -90 0
-107 106 90 0
107 -106 90 0
107 106 -90 0
-108 87 -72 0
-108 -87 72 0
108 87 72 0
108 -87 -72 0
-109 5 0
-109 105 0
109 -5 -105 0
-110 108 0
-110 109 0
110 -108 -109 0
-111 -109 -108 0
-111 109 108 0
111 -109 108 0
111 109 -108 0
-112 85 -76 0
-112 -85 76 0
112 85 76 0
112 -85 -76 0
-113 6 0
-113 105 0
113 -6 -105 0
-114 112 0
-114 113 0
114 -112 -113 0
-115 -113 -112 0
-115 113 112 0
115 -113 112 0
115 113 -112 0
-116 -83 -80 0
-116 83 80 0
116 -83 80 0
116 83 -80 0
-117 21 0
-117 105 0
117 -21 -105 0
-118 116 0
-118 117 0
118 -116 -117 0
-119 115 0
-119 118 0
119 -115 -118 0
-120 -114 0
-120 -119 0
120 114 119 0
-121 111 0
-121 -120 0
121 -111 120 0
-122 -110 0
-122 -121 0
122 110 121 0
-123 122 -107 0
-123 -122 107 0
123 122 107 0
123 -122 -107 0
-124 9 0
-124 20 0
124 -9 -20 0
-125 10 0
-125 18 0
125 -10 -18 0
-126 124 0
-126 125 0
126 -124 -125 0
-127 -125 -124 0
-127 125 124 0
127 -125 124 0
127 125 -124 0
-128 -93 0
-128 -96 0
128 93 96 0
-129 127 0
-129 -128 0
129 -127 128 0
-130 128 -127 0
-130 -128 127 0
130 128 127 0
130 -128 -127 0
-131 11 0
-131 17 0
131 -11 -17 0
-132 130 0
-132 131 0
132 -130 -131 0
-133 -131 -130 0
-133 131 130 0
133 -131 130 0
133 131 -130 0
-134 -99 0
-134 -101 0
134 99 101 0
-135 133 0
-135 -134 0
135 -133 134 0
-136 134 -133 0
-136 -134 133 0
136 134 133 0
136 -134 -133 0
-137 12 0
-137 16 0
137 -12 -16 0
-138 136 0
-138 137 0
138 -136 -137 0
-139 -137 -136 0
-139 137 136 0
139 -137 136 0
139 137 -136 0
-140 104 0
-140 139 0
140 -104 -139 0
-141 -139 -104 0
-141 139 104 0
141 -139 104 0
141 139 -104 0
-142 15 0
-142 19 0
142 -15 -19 0
-143 141 0
-143 142 0
143 -141 -142 0
-144 -142 -141 0
-144 142 141 0
144 -142 141 0
144 142 -141 0
-145 5 0
-145 144 0
145 -5 -144 0
-146 -145 -123 0
-146 145 123 0
146 -145 123 0
146 145 -123 0
-147 120 -111 0
-147 -120 111 0
147 120 111 0
147 -120 -111 0
-148 6 0
-148 144 0
148 -6 -144 0
-149 147 0
-149 148 0
149 -147 -148 0
-150 -148 -147 0
-150 148 147 0
150 -148 147 0
150 148 -147 0
-151 -118 -115 0
-151 118 115 0
151 -118 115 0
151 118 -115 0
-152 21 0
-152 144 0
152 -21 -144 0
-153 151 0
-153 152 0
153 -151 -152 0
-154 150 0
-154 153 0
154 -150 -153 0
-155 -149 0
-155 -154 0
155 149 154 0
-156 155 -146 0
-156 -155 146 0
156 155 146 0
156 -155 -146 0
-157 8 0
-157 20 0
157 -8 -20 0
-158 9 0
-158 18 0
158 -9 -18 0
-159 157 0
-159 158 0
159 -157 -158 0
-160 -158 -157 0
-160 158 157 0
160 -158 157 0
160 158 -157 0
-161 -126 0
-161 -129 0
161 126 129 0
-162 160 0
-162 -161 0
162 -160 161 0
-163 161 -160 0
-163 -161 160 0
163 161 160 0
163 -161 -160 0
-164 10 0
-164 17 0
164 -10 -17 0
-165 163 0
-165 164 0
165 -163 -164 0
-166 -164 -163 0
-166 164 163 0
166 -164 163 0
166 164 -163 0
-167 -132 0
-167 -135 0
167 132 135 0
-168 166 0
-168 -167 0
168 -166 167 0
-169 167 -166 0
-169 -167 166 0
169 167 166 0
169 -167 -166 0
-170 11 0
-170 16 0
170 -11 -16 0
-171 169 0
-171 170 0
171 -169 -170 0
-172 -170 -169 0
-172 170 169 0
172 -170 169 0
172 170 -169 0
-173 -138 0
-173 -140 0
173 138 140 0
-174 172 0
-174 -173 0
174 -172 173 0
-175 173 -172 0
-175 -173 172 0
175 173 172 0
175 -173 -172 0
-176 12 0
-176 15 0
176 -12 -15 0
-177 175 0
-177 176 0
177 -175 -176 0
-178 -176 -175 0
-178 176 175 0
178 -176 175 0
178 176 -175 0
-179 143 0
-179 178 0
179 -143 -178 0
-180 -178 -143 0
-180 178 143 0
180 -178 143 0
180 178 -143 0
-181 14 0
-181 19 0
181 -14 -19 0
-182 180 0
-182 181 0
182 -180 -181 0
-183 -181 -180 0
-183 181 180 0
183 -181 180 0
183 181 -180 0
-184 6 0
-184 183 0
184 -6 -183 0
-185 -184 -156 0
-185 184 156 0
185 -184 156 0
185 184 -156 0
-186 -153 -150 0
-186 153 150 0
186 -153 150 0
186 153 -150 0
-187 21 0
-187 183 0
187 -21 -183 0
-188 186 0
-188 187 0
188 -186 -187 0
-189 -188 -185 0
-189 188 185 0
189 -188 185 0
189 188 -185 0
-190 7 0
-190 20 0
190 -7 -20 0
-191 8 0
-191 18 0
191 -8 -18 0
-192 -191 -190 0
-192 191 190 0
192 -191 190 0
192 191 -190 0
-193 -159 0
-193 -162 0
193 159 162 0
-194 193 -192 0
-194 -193 192 0
194 193 192 0
194 -193 -192 0
-195 9 0
-195 17 0
195 -9 -17 0
-196 -195 -194 0
-196 195 194 0
196 -195 194 0
196 195 -194 0
-197 -165 0
-197 -168 0
197 165 168 0
-198 197 -196 0
-198 -197 196 0
198 197 196 0
198 -197 -196 0
-199 10 0
-199 16 0
199 -10 -16 0
-200 -199 -198 0
-200 199 198 0
200 -199 198 0
200 199 -198 0
-201 -171 0
-201 -174 0
201 171 174 0
-202 201 -200 0
-202 -201 200 0
202 201 200 0
202 -201 -200 0
-203 11 0
-203 15 0
203 -11 -15 0
-204 -203 -202 0
-204 203 202 0
204 -203 202 0
204 203 -202 0
-205 -177 0
-205 -179 0
205 177 179 0
-206 205 -204 0
-206 -205 204 0
206 205 204 0
206 -205 -204 0
-207 12 0
-207 14 0
207 -12 -14 0
-208 -207 -206 0
-208 207 206 0
208 -207 206 0
208 207 -206 0
-209 -208 -182 0
-209 208 182 0
209 -208 182 0
209 208 -182 0
-210 13 0
-210 19 0
210 -13 -19 0
-211 -210 -209 0
-211 210 209 0
211 -210 209 0
211 210 -209 0
-212 21 0
-212 211 0
212 -21 -211 0
-213 -212 -189 0
-213 212 189 0
213 -212 189 0
213 212 -189 0
-214 1 0
-214 19 0
214 -1 -19 0
-215 2 0
-215 12 0
215 -2 -12 0
-216 -215 -214 0
-216 215 214 0
216 -215 214 0
216 215 -214 0
-217 2 0
-217 19 0
217 -2 -19 0
-218 3 0
-218 12 0
218 -3 -12 0
-219 217 0
-219 218 0
219 -217 -218 0
-220 -218 -217 0
-220 218 217 0
220 -218 217 0
220 218 -217 0
-221 3 0
-221 19 0
221 -3 -19 0
-222 4 0
-222 12 0
222 -4 -12 0
-223 221 0
-223 222 0
223 -221 -222 0
-224 -222 -221 0
-224 222 221 0
224 -222 221 0
224 222 -221 0
-225 4 0
-225 19 0
225 -4 -19 0
-226 5 0
-226 12 0
226 -5 -12 0
-227 225 0
-227 226 0
227 -225 -226 0
-228 -226 -225 0
-228 226 225 0
228 -226 225 0
228 226 -225 0
-229 5 0
-229 19 0
229 -5 -19 0
-230 6 0
-230 12 0
230 -6 -12 0
-231 229 0
-231 230 0
231 -229 -230 0
-232 -230 -229 0
-232 230 229 0
232 -230 229 0
232 230 -229 0
-233 6 0
-233 19 0
233 -6 -19 0
-234 12 0
-234 21 0
234 -12 -21 0
-235 233 0
-235 234 0
235 -233 -234 0
-236 232 0
-236 235 0
236 -232 -235 0
-237 -231 0
-237 -236 0
237 231 236 0
-238 228 0
-238 -237 0
238 -228 237 0
-239 -227 0
-239 -238 0
239 227 238 0
-240 224 0
-240 -239 0
240 -224 239 0
-241 -223 0
-241 -240 0
241 223 240 0
-242 220 0
-242 -241 0
242 -220 241 0
-243 -219 0
-243 -242 0
243 219 242 0
-244 243 -216 0
-244 -243 216 0
244 243 216 0
244 -243 -216 0
-245 3 0
-245 11 0
245 -3 -11 0
-246 -245 -244 0
-246 245 244 0
246 -245 244 0
246 245 -244 0
-247 241 -220 0
-247 -241 220 0
247 241 220 0
247 -241 -220 0
-248 4 0
-248 11 0
248 -4 -11 0
-249 247 0
-249 248 0
249 -247 -248 0
-250 -248 -247 0
-250 248 247 0
250 -248 247 0
250 248 -247 0
-251 239 -224 0
-251 -239 224 0
251 239 224 0
251 -239 -224 0
-252 5 0
-252 11 0
252 -5 -11 0
-253 251 0
-253 252 0
253 -251 -252 0
-254 -252 -251 0
-254 252 251 0
254 -252 251 0
254 252 -251 0
-255 237 -228 0
-255 -237 228 0
255 237 228 0
255 -237 -228 0
-256 6 0
-256 11 0
256 -6 -11 0
-257 255 0
-257 256 0
257 -255 -256 0
-258 -256 -255 0
-258 256 255 0
258 -256 255 0
258 256 -255 0
-259 -235 -232 0
-259 235 232 0
259 -235 232 0
259 235 -232 0
-260 11 0
-260 21 0
260 -11 -21 0
-261 259 0
-261 260 0
261 -259 -260 0
-262 258 0
-262 261 0
262 -258 -261 0
-263 -257 0
-263 -262 0
263 257 262 0
-264 254 0
-264 -263 0
264 -254 263 0
-265 -253 0
-265 -264 0
265 253 264 0
-266 250 0
-266 -265 0
266 -250 265 0
-267 -249 0
-267 -266 0
267 249 266 0
-268 267 -246 0
-268 -267 246 0
268 267 246 0
268 -267 -246 0
-269 4 0
-269 10 0
269 -4 -10 0
-270 -269 -268 0
-270 269 268 0
270 -269 268 0
270 269 -268 0
-271 265 -250 0
-271 -265 250 0
271 265 250 0
271 -265 -250 0
-272 5 0
-272 10 0
272 -5 -10 0
-273 271 0
-273 272 0
273 -271 -272 0
-274 -272 -271 0
-274 272 271 0
274 -272 271 0
274 272 -271 0
-275 263 -254 0
-275 -263 254 0
275 263 254 0
275 -263 -254 0
-276 6 0
-276 10 0
276 -6 -10 0
-277 275 0
-277 276 0
277 -275 -276 0
-278 -276 -275 0
-278 276 275 0
278 -276 275 0
278 276 -275 0
-279 -261 -258 0
-279 261 258 0
279 -261 258 0
279 261 -258 0
-280 10 0
-280 21 0
280 -10 -21 0
-281 279 0
-281 280 0
281 -279 -280 0
-282 278 0
-282 281 0
282 -278 -281 0
-283 -277 0
-283 -282 0
283 277 282 0
-284 274 0
-284 -283 0
284 -274 283 0
-285 -273 0
-285 -284 0
285 273 284 0
-286 285 -270 0
-286 -285 270 0
286 285 270 0
286 -285 -270 0
-287 5 0
-287 9 0
287 -5 -9 0
-288 -287 -286 0
-288 287 286 0
288 -287 286 0
288 287 -286 0
-289 283 -274 0
-289 -283 274 0
289 283 274 0
289 -283 -274 0
-290 6 0
-290 9 0
290 -6 -9 0
-291 289 0
-291 290 0
291 -289 -290 0
-292 -290 -289 0
-292 290 289 0
292 -290 289 0
292 290 -289 0
-293 -281 -278 0
-293 281 278 0
293 -281 278 0
293 281 -278 0
-294 9 0
-294 21 0
294 -9 -21 0
-295 293 0
-295 294 0
295 -293 -294 0
-296 292 0
-296 295 0
296 -292 -295 0
-297 -291 0
-297 -296 0
297 291 296 0
-298 297 -288 0
-298 -297 288 0
298 297 288 0
298 -297 -288 0
-299 6 0
-299 8 0
299 -6 -8 0
-300 -299 -298 0
-300 299 298 0
300 -299 298 0
300 299 -298 0
-301 -295 -292 0
-301 295 292 0
301 -295 292 0
301 295 -292 0
-302 8 0
-302 21 0
302 -8 -21 0
-303 301 0
-303 302 0
303 -301 -302 0
-304 -303 -300 0
-304 303 300 0
304 -303 300 0
304 303 -300 0
-305 7 0
-305 21 0
305 -7 -21 0
-306 -305 -304 0
-306 305 304 0
306 -305 304 0
306 305 -304 0
-307 20 0
-307 306 0
307 -20 -306 0
-308 -302 -301 0
-308 302 301 0
308 -302 301 0
308 302 -301 0
-309 18 0
-309 308 0
309 -18 -308 0
-310 -309 -307 0
-310 309 307 0
310 -309 307 0
310 309 -307 0
-311 20 0
-311 308 0
311 -20 -308 0
-312 -294 -293 0
-312 294 293 0
312 -294 293 0
312 294 -293 0
-313 18 0
-313 312 0
313 -18 -312 0
-314 311 0
-314 313 0
314 -311 -313 0
-315 -313 -311 0
-315 313 311 0
315 -313 311 0
315 313 -311 0
-316 20 0
-316 312 0
316 -20 -312 0
-317 -280 -279 0
-317 280 279 0
317 -280 279 0
317 280 -279 0
-318 18 0
-318 317 0
318 -18 -317 0
-319 316 0
-319 318 0
319 -316 -318 0
-320 -318 -316 0
-320 318 316 0
320 -318 316 0
320 318 -316 0
-321 20 0
-321 317 0
321 -20 -317 0
-322 -260 -259 0
-322 260 259 0
322 -260 259 0
322 260 -259 0
-323 18 0
-323 322 0
323 -18 -322 0
-324 321 0
-324 323 0
324 -321 -323 0
-325 -323 -321 0
-325 323 321 0
325 -323 321 0
325 323 -321 0
-326 20 0
-326 322 0
326 -20 -322 0
-327 -234 -233 0
-327 234 233 0
327 -234 233 0
327 234 -233 0
-328 18 0
-328 327 0
328 -18 -327 0
-329 326 0
-329 328 0
329 -326 -328 0
-330 -328 -326 0
-330 328 326 0
330 -328 326 0
330 328 -326 0
-331 20 0
-331 327 0
331 -20 -327 0
-332 19 0
-332 21 0
332 -19 -21 0
-333 18 0
-333 332 0
333 -18 -332 0
-334 331 0
-334 333 0
334 -331 -333 0
-335 330 0
-335 334 0
335 -330 -334 0
-336 -329 0
-336 -335 0
336 329 335 0
-337 325 0
-337 -336 0
337 -325 336 0
-338 -324 0
-338 -337 0
338 324 337 0
-339 320 0
-339 -338 0
339 -320 338 0
-340 -319 0
-340 -339 0
340 319 339 0
-341 315 0
-341 -340 0
341 -315 340 0
-342 -314 0
-342 -341 0
342 314 341 0
-343 342 -310 0
-343 -342 310 0
343 342 310 0
343 -342 -310 0
-344 17 0
-344 312 0
344 -17 -312 0
-345 -344 -343 0
-345 344 343 0
345 -344 343 0
345 344 -343 0
-346 340 -315 0
-346 -340 315 0
346 340 315 0
346 -340 -315 0
-347 17 0
-347 317 0
347 -17 -317 0
-348 346 0
-348 347 0
348 -346 -347 0
-349 -347 -346 0
-349 347 346 0
349 -347 346 0
349 347 -346 0
-350 338 -320 0
-350 -338 320 0
350 338 320 0
350 -338 -320 0
-351 17 0
-351 322 0
351 -17 -322 0
-352 350 0
-352 351 0
352 -350 -351 0
-353 -351 -350 0
-353 351 350 0
353 -351 350 0
353 351 -350 0
-354 336 -325 0
-354 -336 325 0
354 336 325 0
354 -336 -325 0
-355 17 0
-355 327 0
355 -17 -327 0
-356 354 0
-356 355 0
356 -354 -355 0
-357 -355 -354 0
-357 355 354 0
357 -355 354 0
357 355 -354 0
-358 -334 -330 0
-358 334 330 0
358 -334 330 0
358 334 -330 0
-359 17 0
-359 332 0
359 -17 -332 0
-360 358 0
-360 359 0
360 -358 -359 0
-361 357 0
-361 360 0
361 -357 -360 0
-362 -356 0
-362 -361 0
362 356 361 0
-363 353 0
-363 -362 0
363 -353 362 0
-364 -352 0
-364 -363 0
364 352 363 0
-365 349 0
-365 -364 0
365 -349 364 0
-366 -348 0
-366 -365 0
366 348 365 0
-367 366 -345 0
-367 -366 345 0
367 366 345 0
367 -366 -345 0
-368 16 0
-368 317 0
368 -16 -317 0
-369 -368 -367 0
-369 368 367 0
369 -368 367 0
369 368 -367 0
-370 364 -349 0
-370 -364 349 0
370 364 349 0
370 -364 -349 0
-371 16 0
-371 322 0
371 -16 -322 0
-372 370 0
-372 371 0
372 -370 -371 0
-373 -371 -370 0
-373 371 370 0
373 -371 370 0
373 371 -370 0
-374 362 -353 0
-374 -362 353 0
374 362 353 0
374 -362 -353 0
-375 16 0
-375 327 0
375 -16 -327 0
-376 374 0
-376 375 0
376 -374 -375 0
-377 -375 -374 0
-377 375 374 0
377 -375 374 0
377 375 -374 0
-378 -360 -357 0
-378 360 357 0
378 -360 357 0
378 360 -357 0
-379 16 0
-379 332 0
379 -16 -332 0
-380 378 0
-380 379 0
380 -378 -379 0
-381 377 0
-381 380 0
381 -377 -380 0
-382 -376 0
-382 -381 0
382 376 381 0
-383 373 0
-383 -382 0
383 -373 382 0
-384 -372 0
-384 -383 0
384 372 383 0
-385 384 -369 0
-385 -384 369 0
385 384 369 0
385 -384 -369 0
-386 15 0
-386 322 0
386 -15 -322 0
-387 -386 -385 0
-387 386 385 0
387 -386 385 0
387 386 -385 0
-388 382 -373 0
-388 -382 373 0
388 382 373 0
388 -382 -373 0
-389 15 0
-389 327 0
389 -15 -327 0
-390 388 0
-390 389 0
390 -388 -389 0
-391 -389 -388 0
-391 389 388 0
391 -389 388 0
391 389 -388 0
-392 -380 -377 0
-392 380 377 0
392 -380 377 0
392 380 -377 0
-393 15 0
-393 332 0
393 -15 -332 0
-394 392 0
-394 393 0
394 -392 -393 0
-395 391 0
-395 394 0
395 -391 -394 0
-396 -390 0
-396 -395 0
396 390 395 0
-397 396 -387 0
-397 -396 387 0
397 396 387 0
397 -396 -387 0
-398 14 0
-398 327 0
398 -14 -327 0
-399 -398 -397 0
-399 398 397 0
399 -398 397 0
399 398 -397 0
-400 -394 -391 0
-400 394 391 0
400 -394 391 0
400 394 -391 0
-401 14 0
-401 332 0
401 -14 -332 0
-402 400 0
-402 401 0
402 -400 -401 0
-403 -402 -399 0
-403 402 399 0
403 -402 399 0
403 402 -399 0
-404 13 0
-404 332 0
404 -13 -332 0
-405 -404 -403 0
-405 404 403 0
405 -404 403 0
405 404 -403 0
406 405 213 0
406 -405 -213 0
-407 -187 -186 0
-407 187 186 0
407 -187 186 0
407 187 -186 0
-408 -401 -400 0
-408 401 400 0
408 -401 400 0
408 401 -400 0
409 408 407 0
409 -408 -407 0
410 -406 -409 0
-411 -152 -151 0
-411 152 151 0
411 -152 151 0
411 152 -151 0
-412 -393 -392 0
-412 393 392 0
412 -393 392 0
412 393 -392 0
413 412 411 0
413 -412 -411 0
414 -410 -413 0
-415 -117 -116 0
-415 117 116 0
415 -117 116 0
415 117 -116 0
-416 -379 -378 0
-416 379 378 0
416 -379 378 0
416 379 -378 0
417 416 415 0
417 -416 -415 0
418 -414 -417 0
-419 -82 -81 0
-419 82 81 0
419 -82 81 0
419 82 -81 0
-420 -359 -358 0
-420 359 358 0
420 -359 358 0
420 359 -358 0
421 420 419 0
421 -420 -419 0
422 -418 -421 0
-423 -47 -46 0
-423 47 46 0
423 -47 46 0
423 47 -46 0
-424 -333 -331 0
-424 333 331 0
424 -333 331 0
424 333 -331 0
425 424 423 0
425 -424 -423 0
426 -422 -425 0
-427 21 0
-427 22 0
427 -21 -22 0
-428 20 0
-428 332 0
428 -20 -332 0
429 428 427 0
429 -428 -427 0
430 -426 -429 0
431 -17 -18 0
-432 -16 0
-432 -431 0
-433 -15 0
-433 432 0
434 -14 433 0
435 -13 -434 0
436 -5 -6 0
-437 -4 0
-437 -436 0
-438 -3 0
-438 437 0
439 -2 438 0
440 -1 -439 0
441 -11 -12 0
-442 -10 0
-442 -441 0
-443 -9 0
-443 442 0
444 -8 443 0
445 -7 -444 0
-446 -440 0
-446 -445 0
-447 -435 0
-447 446 0
-448 -430 0
-448 447 0
448 0
