p cnf 319 961
-19 12 0
-19 18 0
19 -12 -18 0
-20 1 0
-20 19 0
20 -1 -19 0
-21 11 0
-21 18 0
21 -11 -18 0
-22 12 0
-22 17 0
22 -12 -17 0
-23 21 0
-23 22 0
23 -21 -22 0
-24 -22 -21 0
-24 22 21 0
24 -22 21 0
24 22 -21 0
-25 2 0
-25 24 0
25 -2 -24 0
-26 -25 -20 0
-26 25 20 0
26 -25 20 0
26 25 -20 0
-27 2 0
-27 19 0
27 -2 -19 0
-28 3 0
-28 24 0
28 -3 -24 0
-29 27 0
-29 28 0
29 -27 -28 0
-30 -28 -27 0
-30 28 27 0
30 -28 27 0
30 28 -27 0
-31 3 0
-31 19 0
31 -3 -19 0
-32 4 0
-32 24 0
32 -4 -24 0
-33 31 0
-33 32 0
33 -31 -32 0
-34 -32 -31 0
-34 32 31 0
34 -32 31 0
34 32 -31 0
-35 4 0
-35 19 0
35 -4 -19 0
-36 5 0
-36 24 0
36 -5 -24 0
-37 35 0
-37 36 0
37 -35 -36 0
-38 -36 -35 0
-38 36 35 0
38 -36 35 0
38 36 -35 0
-39 5 0
-39 19 0
39 -5 -19 0
-40 6 0
-40 24 0
40 -6 -24 0
-41 39 0
-41 40 0
41 -39 -40 0
-42 38 0
-42 41 0
42 -38 -41 0
-43 -37 0
-43 -42 0
43 37 42 0
-44 34 0
-44 -43 0
44 -34 43 0
-45 -33 0
-45 -44 0
45 33 44 0
-46 30 0
-46 -45 0
46 -30 45 0
-47 -29 0
-47 -46 0
47 29 46 0
-48 47 -26 0
-48 -47 26 0
48 47 26 0
48 -47 -26 0
-49 10 0
-49 18 0
49 -10 -18 0
-50 11 0
-50 17 0
50 -11 -17 0
-51 49 0
-51 50 0
51 -49 -50 0
-52 -50 -49 0
-52 50 49 0
52 -50 49 0
52 50 -49 0
-53 23 0
-53 52 0
53 -23 -52 0
-54 -52 -23 0
-54 52 23 0
54 -52 23 0
54 52 -23 0
-55 12 0
-55 16 0
55 -12 -16 0
-56 54 0
-56 55 0
56 -54 -55 0
-57 -55 -54 0
-57 55 54 0
57 -55 54 0
57 55 -54 0
-58 3 0
-58 57 0
58 -3 -57 0
-59 -58 -48 0
-59 58 48 0
59 -58 48 0
59 58 -48 0
-60 45 -30 0
-60 -45 30 0
60 45 30 0
60 -45 -30 0
-61 4 0
-61 57 0
61 -4 -57 0
-62 60 0
-62 61 0
62 -60 -61 0
-63 -61 -60 0
-63 61 60 0
63 -61 60 0
63 61 -60 0
-64 43 -34 0
-64 -43 34 0
64 43 34 0
64 -43 -34 0
-65 5 0
-65 57 0
65 -5 -57 0
-66 64 0
-66 65 0
66 -64 -65 0
-67 -65 -64 0
-67 65 64 0
67 -65 64 0
67 65 -64 0
-68 -41 -38 0
-68 41 38 0
68 -41 38 0
68 41 -38 0
-69 6 0
-69 57 0
69 -6 -57 0
-70 68 0
-70 69 0
70 -68 -69 0
-71 67 0
-71 70 0
71 -67 -70 0
-72 -66 0
-72 -71 0
72 66 71 0
-73 63 0
-73 -72 0
73 -63 72 0
-74 -62 0
-74 -73 0
74 62 73 0
-75 74 -59 0
-75 -74 59 0
75 74 59 0
75 -74 -59 0
-76 9 0
-76 18 0
76 -9 -18 0
-77 10 0
-77 17 0
77 -10 -17 0
-78 76 0
-78 77 0
78 -76 -77 0
-79 -77 -76 0
-79 77 76 0
79 -77 76 0
79 77 -76 0
-80 -51 0
-80 -53 0
80 51 53 0
-81 79 0
-81 -80 0
81 -79 80 0
-82 80 -79 0
-82 -80 79 0
82 80 79 0
82 -80 -79 0
-83 11 0
-83 16 0
83 -11 -16 0
-84 82 0
-84 83 0
84 -82 -83 0
-85 -83 -82 0
-85 83 82 0
85 -83 82 0
85 83 -82 0
-86 56 0
-86 85 0
86 -56 -85 0
-87 -85 -56 0
-87 85 56 0
87 -85 56 0
87 85 -56 0
-88 12 0
-88 15 0
88 -12 -15 0
-89 87 0
-89 88 0
89 -87 -88 0
-90 -88 -87 0
-90 88 87 0
90 -88 87 0
90 88 -87 0
-91 4 0
-91 90 0
91 -4 -90 0
-92 -91 -75 0
-92 91 75 0
92 -91 75 0
92 91 -75 0
-93 72 -63 0
-93 -72 63 0
93 72 63 0
93 -72 -63 0
-94 5 0
-94 90 0
94 -5 -90 0
-95 93 0
-95 94 0
95 -93 -94 0
-96 -94 -93 0
-96 94 93 0
96 -94 93 0
96 94 -93 0
-97 -70 -67 0
-97 70 67 0
97 -70 67 0
97 70 -67 0
-98 6 0
-98 90 0
98 -6 -90 0
-99 97 0
-99 98 0
99 -97 -98 0
-100 96 0
-100 99 0
100 -96 -99 0
-101 -95 0
-101 -100 0
101 95 100 0
-102 101 -92 0
-102 -101 92 0
102 101 92 0
102 -101 -92 0
-103 8 0
-103 18 0
103 -8 -18 0
-104 9 0
-104 17 0
104 -9 -17 0
-105 103 0
-105 104 0
105 -103 -104 0
-106 -104 -103 0
-106 104 103 0
106 -104 103 0
106 104 -103 0
-107 -78 0
-107 -81 0
107 78 81 0
-108 106 0
-108 -107 0
108 -106 107 0
-109 107 -106 0
-109 -107 106 0
109 107 106 0
109 -107 -106 0
-110 10 0
-110 16 0
110 -10 -16 0
-111 109 0
-111 110 0
111 -109 -110 0
-112 -110 -109 0
-112 110 109 0
112 -110 109 0
112 110 -109 0
-113 -84 0
-113 -86 0
113 84 86 0
-114 112 0
-114 -113 0
114 -112 113 0
-115 113 -112 0
-115 -113 112 0
115 113 112 0
115 -113 -112 0
-116 11 0
-116 15 0
116 -11 -15 0
-117 115 0
-117 116 0
117 -115 -116 0
-118 -116 -115 0
-118 116 115 0
118 -116 115 0
118 116 -115 0
-119 89 0
-119 118 0
119 -89 -118 0
-120 -118 -89 0
-120 118 89 0
120 -118 89 0
120 118 -89 0
-121 12 0
-121 14 0
121 -12 -14 0
-122 120 0
-122 121 0
122 -120 -121 0
-123 -121 -120 0
-123 121 120 0
123 -121 120 0
123 121 -120 0
-124 5 0
-124 123 0
124 -5 -123 0
-125 -124 -102 0
-125 124 102 0
125 -124 102 0
125 124 -102 0
-126 -99 -96 0
-126 99 96 0
126 -99 96 0
126 99 -96 0
-127 6 0
-127 123 0
127 -6 -123 0
-128 126 0
-128 127 0
128 -126 -127 0
-129 -128 -125 0
-129 128 125 0
129 -128 125 0
129 128 -125 0
-130 7 0
-130 18 0
130 -7 -18 0
-131 8 0
-131 17 0
131 -8 -17 0
-132 -131 -130 0
-132 131 130 0
132 -131 130 0
132 131 -130 0
-133 -105 0
-133 -108 0
133 105 108 0
-134 133 -132 0
-134 -133 132 0
134 133 132 0
134 -133 -132 0
-135 9 0
-135 16 0
135 -9 -16 0
-136 -135 -134 0
-136 135 134 0
136 -135 134 0
136 135 -134 0
-137 -111 0
-137 -114 0
137 111 114 0
-138 137 -136 0
-138 -137 136 0
138 137 136 0
138 -137 -136 0
-139 10 0
-139 15 0
139 -10 -15 0
-140 -139 -138 0
-140 139 138 0
140 -139 138 0
140 139 -138 0
-141 -117 0
-141 -119 0
141 117 119 0
-142 141 -140 0
-142 -141 140 0
142 141 140 0
142 -141 -140 0
-143 11 0
-143 14 0
143 -11 -14 0
-144 -143 -142 0
-144 143 142 0
144 -143 142 0
144 143 -142 0
-145 -144 -122 0
-145 144 122 0
145 -144 122 0
145 144 -122 0
-146 12 0
-146 13 0
146 -12 -13 0
-147 -146 -145 0
-147 146 145 0
147 -146 145 0
147 146 -145 0
-148 6 0
-148 147 0
148 -6 -147 0
-149 -148 -129 0
-149 148 129 0
149 -148 129 0
149 148 -129 0
-150 1 0
-150 12 0
150 -1 -12 0
-151 2 0
-151 11 0
151 -2 -11 0
-152 -151 -150 0
-152 151 150 0
152 -151 150 0
152 151 -150 0
-153 2 0
-153 12 0
153 -2 -12 0
-154 3 0
-154 11 0
154 -3 -11 0
-155 153 0
-155 154 0
155 -153 -154 0
-156 -154 -153 0
-156 154 153 0
156 -154 153 0
156 154 -153 0
-157 3 0
-157 12 0
157 -3 -12 0
-158 4 0
-158 11 0
158 -4 -11 0
-159 157 0
-159 158 0
159 -157 -158 0
-160 -158 -157 0
-160 158 157 0
160 -158 157 0
160 158 -157 0
-161 4 0
-161 12 0
161 -4 -12 0
-162 5 0
-162 11 0
162 -5 -11 0
-163 161 0
-163 162 0
163 -161 -162 0
-164 -162 -161 0
-164 162 161 0
164 -162 161 0
164 162 -161 0
-165 5 0
-165 12 0
165 -5 -12 0
-166 6 0
-166 11 0
166 -6 -11 0
-167 165 0
-167 166 0
167 -165 -166 0
-168 164 0
-168 167 0
168 -164 -167 0
-169 -163 0
-169 -168 0
169 163 168 0
-170 160 0
-170 -169 0
170 -160 169 0
-171 -159 0
-171 -170 0
171 159 170 0
-172 156 0
-172 -171 0
172 -156 171 0
-173 -155 0
-173 -172 0
173 155 172 0
-174 173 -152 0
-174 -173 152 0
174 173 152 0
174 -173 -152 0
-175 3 0
-175 10 0
175 -3 -10 0
-176 -175 -174 0
-176 175 174 0
176 -175 174 0
176 175 -174 0
-177 171 -156 0
-177 -171 156 0
177 171 156 0
177 -171 -156 0
-178 4 0
-178 10 0
178 -4 -10 0
-179 177 0
-179 178 0
179 -177 -178 0
-180 -178 -177 0
-180 178 177 0
180 -178 177 0
180 178 -177 0
-181 169 -160 0
-181 -169 160 0
181 169 160 0
181 -169 -160 0
-182 5 0
-182 10 0
182 -5 -10 0
-183 181 0
-183 182 0
183 -181 -182 0
-184 -182 -181 0
-184 182 181 0
184 -182 181 0
184 182 -181 0
-185 -167 -164 0
-185 167 164 0
185 -167 164 0
185 167 -164 0
-186 6 0
-186 10 0
186 -6 -10 0
-187 185 0
-187 186 0
187 -185 -186 0
-188 184 0
-188 187 0
188 -184 -187 0
-189 -183 0
-189 -188 0
189 183 188 0
-190 180 0
-190 -189 0
190 -180 189 0
-191 -179 0
-191 -190 0
191 179 190 0
-192 191 -176 0
-192 -191 176 0
192 191 176 0
192 -191 -176 0
-193 4 0
-193 9 0
193 -4 -9 0
-194 -193 -192 0
-194 193 192 0
194 -193 192 0
194 193 -192 0
-195 189 -180 0
-195 -189 180 0
195 189 180 0
195 -189 -180 0
-196 5 0
-196 9 0
196 -5 -9 0
-197 195 0
-197 196 0
197 -195 -196 0
-198 -196 -195 0
-198 196 195 0
198 -196 195 0
198 196 -195 0
-199 -187 -184 0
-199 187 184 0
199 -187 184 0
199 187 -184 0
-200 6 0
-200 9 0
200 -6 -9 0
-201 199 0
-201 200 0
201 -199 -200 0
-202 198 0
-202 201 0
202 -198 -201 0
-203 -197 0
-203 -202 0
203 197 202 0
-204 203 -194 0
-204 -203 194 0
204 203 194 0
204 -203 -194 0
-205 5 0
-205 8 0
205 -5 -8 0
-206 -205 -204 0
-206 205 204 0
206 -205 204 0
206 205 -204 0
-207 -201 -198 0
-207 201 198 0
207 -201 198 0
207 201 -198 0
-208 6 0
-208 8 0
208 -6 -8 0
-209 207 0
-209 208 0
209 -207 -208 0
-210 -209 -206 0
-210 209 206 0
210 -209 206 0
210 209 -206 0
-211 6 0
-211 7 0
211 -6 -7 0
-212 -211 -210 0
-212 211 210 0
212 -211 210 0
212 211 -210 0
-213 18 0
-213 212 0
213 -18 -212 0
-214 -208 -207 0
-214 208 207 0
214 -208 207 0
214 208 -207 0
-215 17 0
-215 214 0
215 -17 -214 0
-216 -215 -213 0
-216 215 213 0
216 -215 213 0
216 215 -213 0
-217 18 0
-217 214 0
217 -18 -214 0
-218 -200 -199 0
-218 200 199 0
218 -200 199 0
218 200 -199 0
-219 17 0
-219 218 0
219 -17 -218 0
-220 217 0
-220 219 0
220 -217 -219 0
-221 -219 -217 0
-221 219 217 0
221 -219 217 0
221 219 -217 0
-222 18 0
-222 218 0
222 -18 -218 0
-223 -186 -185 0
-223 186 185 0
223 -186 185 0
223 186 -185 0
-224 17 0
-224 223 0
224 -17 -223 0
-225 222 0
-225 224 0
225 -222 -224 0
-226 -224 -222 0
-226 224 222 0
226 -224 222 0
226 224 -222 0
-227 18 0
-227 223 0
227 -18 -223 0
-228 -166 -165 0
-228 166 165 0
228 -166 165 0
228 166 -165 0
-229 17 0
-229 228 0
229 -17 -228 0
-230 227 0
-230 229 0
230 -227 -229 0
-231 -229 -227 0
-231 229 227 0
231 -229 227 0
231 229 -227 0
-232 18 0
-232 228 0
232 -18 -228 0
-233 6 0
-233 12 0
233 -6 -12 0
-234 17 0
-234 233 0
234 -17 -233 0
-235 232 0
-235 234 0
235 -232 -234 0
-236 231 0
-236 235 0
236 -231 -235 0
-237 -230 0
-237 -236 0
237 230 236 0
-238 226 0
-238 -237 0
238 -226 237 0
-239 -225 0
-239 -238 0
239 225 238 0
-240 221 0
-240 -239 0
240 -221 239 0
-241 -220 0
-241 -240 0
241 220 240 0
-242 241 -216 0
-242 -241 216 0
242 241 216 0
242 -241 -216 0
-243 16 0
-243 218 0
243 -16 -218 0
-244 -243 -242 0
-244 243 242 0
244 -243 242 0
244 243 -242 0
-245 239 -221 0
-245 -239 221 0
245 239 221 0
245 -239 -221 0
-246 16 0
-246 223 0
246 -16 -223 0
-247 245 0
-247 246 0
247 -245 -246 0
-248 -246 -245 0
-248 246 245 0
248 -246 245 0
248 246 -245 0
-249 237 -226 0
-249 -237 226 0
249 237 226 0
249 -237 -226 0
-250 16 0
-250 228 0
250 -16 -228 0
-251 249 0
-251 250 0
251 -249 -250 0
-252 -250 -249 0
-252 250 249 0
252 -250 249 0
252 250 -249 0
-253 -235 -231 0
-253 235 231 0
253 -235 231 0
253 235 -231 0
-254 16 0
-254 233 0
254 -16 -233 0
-255 253 0
-255 254 0
255 -253 -254 0
-256 252 0
-256 255 0
256 -252 -255 0
-257 -251 0
-257 -256 0
257 251 256 0
-258 248 0
-258 -257 0
258 -248 257 0
-259 -247 0
-259 -258 0
259 247 258 0
-260 259 -244 0
-260 -259 244 0
260 259 244 0
260 -259 -244 0
-261 15 0
-261 223 0
261 -15 -223 0
-262 -261 -260 0
-262 261 260 0
262 -261 260 0
262 261 -260 0
-263 257 -248 0
-263 -257 248 0
263 257 248 0
263 -257 -248 0
-264 15 0
-264 228 0
264 -15 -228 0
-265 263 0
-265 264 0
265 -263 -264 0
-266 -264 -263 0
-266 264 263 0
266 -264 263 0
266 264 -263 0
-267 -255 -252 0
-267 255 252 0
267 -255 252 0
267 255 -252 0
-268 15 0
-268 233 0
268 -15 -233 0
-269 267 0
-269 268 0
269 -267 -268 0
-270 266 0
-270 269 0
270 -266 -269 0
-271 -265 0
-271 -270 0
271 265 270 0
-272 271 -262 0
-272 -271 262 0
272 271 262 0
272 -271 -262 0
-273 14 0
-273 228 0
273 -14 -228 0
-274 -273 -272 0
-274 273 272 0
274 -273 272 0
274 273 -272 0
-275 -269 -266 0
-275 269 266 0
275 -269 266 0
275 269 -266 0
-276 14 0
-276 233 0
276 -14 -233 0
-277 275 0
-277 276 0
277 -275 -276 0
-278 -277 -274 0
-278 277 274 0
278 -277 274 0
278 277 -274 0
-279 13 0
-279 233 0
279 -13 -233 0
-280 -279 -278 0
-280 279 278 0
280 -279 278 0
280 279 -278 0
281 280 149 0
281 -280 -149 0
-282 -127 -126 0
-282 127 126 0
282 -127 126 0
282 127 -126 0
-283 -276 -275 0
-283 276 275 0
283 -276 275 0
283 276 -275 0
284 283 282 0
284 -283 -282 0
285 -281 -284 0
-286 -98 -97 0
-286 98 97 0
286 -98 97 0
286 98 -97 0
-287 -268 -267 0
-287 268 267 0
287 -268 267 0
287 268 -267 0
288 287 286 0
288 -287 -286 0
289 -285 -288 0
-290 -69 -68 0
-290 69 68 0
290 -69 68 0
290 69 -68 0
-291 -254 -253 0
-291 254 253 0
291 -254 253 0
291 254 -253 0
292 291 290 0
292 -291 -290 0
293 -289 -292 0
-294 -40 -39 0
-294 40 39 0
294 -40 39 0
294 40 -39 0
-295 -234 -232 0
-295 234 232 0
295 -234 232 0
295 234 -232 0
296 295 294 0
296 -295 -294 0
297 -293 -296 0
-298 6 0
-298 19 0
298 -6 -19 0
-299 18 0
-299 233 0
299 -18 -233 0
300 299 298 0
300 -299 -298 0
301 -297 -300 0
-302 -17 0
-302 -18 0
303 -16 302 0
-304 -15 0
-304 -303 0
305 -14 304 0
306 -13 -305 0
-307 -5 0
-307 -6 0
308 -4 307 0
-309 -3 0
-309 -308 0
310 -2 309 0
311 -1 -310 0
-312 -11 0
-312 -12 0
313 -10 312 0
-314 -9 0
-314 -313 0
315 -8 314 0
316 -7 -315 0
-317 -311 0
-317 -316 0
-318 -306 0
-318 317 0
-319 -301 0
-319 318 0
319 0
