p cnf 267 743
29 22 1 0
29 -22 -1 0
30 23 16 0
30 -23 -16 0
31 -29 -30 0
32 24 17 0
32 -24 -17 0
33 -31 -32 0
34 25 18 0
34 -25 -18 0
35 -33 -34 0
36 26 19 0
36 -26 -19 0
37 -35 -36 0
38 27 20 0
38 -27 -20 0
39 -37 -38 0
40 28 21 0
40 -28 -21 0
41 -39 -40 0
-42 2 0
-42 3 0
42 -2 -3 0
-43 4 0
-43 5 0
43 -4 -5 0
-44 -43 -42 0
-44 43 42 0
44 -43 42 0
44 43 -42 0
-45 3 0
-45 4 0
45 -3 -4 0
-46 5 0
-46 6 0
46 -5 -6 0
-47 45 0
-47 46 0
47 -45 -46 0
-48 -46 -45 0
-48 46 45 0
48 -46 45 0
48 46 -45 0
-49 3 0
-49 6 0
49 -3 -6 0
-50 5 0
-50 7 0
50 -5 -7 0
-51 49 0
-51 50 0
51 -49 -50 0
-52 -50 -49 0
-52 50 49 0
52 -50 49 0
52 50 -49 0
-53 3 0
-53 7 0
53 -3 -7 0
-54 5 0
-54 8 0
54 -5 -8 0
-55 53 0
-55 54 0
55 -53 -54 0
-56 -54 -53 0
-56 54 53 0
56 -54 53 0
56 54 -53 0
-57 3 0
-57 8 0
57 -3 -8 0
-58 5 0
-58 9 0
58 -5 -9 0
-59 57 0
-59 58 0
59 -57 -58 0
-60 -58 -57 0
-60 58 57 0
60 -58 57 0
60 58 -57 0
-61 3 0
-61 9 0
61 -3 -9 0
-62 5 0
-62 10 0
62 -5 -10 0
-63 61 0
-63 62 0
63 -61 -62 0
-64 60 0
-64 63 0
64 -60 -63 0
-65 -59 0
-65 -64 0
65 59 64 0
-66 56 0
-66 -65 0
66 -56 65 0
-67 -55 0
-67 -66 0
67 55 66 0
-68 52 0
-68 -67 0
68 -52 67 0
-69 -51 0
-69 -68 0
69 51 68 0
-70 48 0
-70 -69 0
70 -48 69 0
-71 -47 0
-71 -70 0
71 47 70 0
-72 71 -44 0
-72 -71 44 0
72 71 44 0
72 -71 -44 0
-73 6 0
-73 11 0
73 -6 -11 0
-74 -73 -72 0
-74 73 72 0
74 -73 72 0
74 73 -72 0
-75 69 -48 0
-75 -69 48 0
75 69 48 0
75 -69 -48 0
-76 7 0
-76 11 0
76 -7 -11 0
-77 75 0
-77 76 0
77 -75 -76 0
-78 -76 -75 0
-78 76 75 0
78 -76 75 0
78 76 -75 0
-79 67 -52 0
-79 -67 52 0
79 67 52 0
79 -67 -52 0
-80 8 0
-80 11 0
80 -8 -11 0
-81 79 0
-81 80 0
81 -79 -80 0
-82 -80 -79 0
-82 80 79 0
82 -80 79 0
82 80 -79 0
-83 65 -56 0
-83 -65 56 0
83 65 56 0
83 -65 -56 0
-84 9 0
-84 11 0
84 -9 -11 0
-85 83 0
-85 84 0
85 -83 -84 0
-86 -84 -83 0
-86 84 83 0
86 -84 83 0
86 84 -83 0
-87 -63 -60 0
-87 63 60 0
87 -63 60 0
87 63 -60 0
-88 10 0
-88 11 0
88 -10 -11 0
-89 87 0
-89 88 0
89 -87 -88 0
-90 86 0
-90 89 0
90 -86 -89 0
-91 -85 0
-91 -90 0
91 85 90 0
-92 82 0
-92 -91 0
92 -82 91 0
-93 -81 0
-93 -92 0
93 81 92 0
-94 78 0
-94 -93 0
94 -78 93 0
-95 -77 0
-95 -94 0
95 77 94 0
-96 95 -74 0
-96 -95 74 0
96 95 74 0
96 -95 -74 0
-97 7 0
-97 12 0
97 -7 -12 0
-98 -97 -96 0
-98 97 96 0
98 -97 96 0
98 97 -96 0
-99 93 -78 0
-99 -93 78 0
99 93 78 0
99 -93 -78 0
-100 8 0
-100 12 0
100 -8 -12 0
-101 99 0
-101 100 0
101 -99 -100 0
-102 -100 -99 0
-102 100 99 0
102 -100 99 0
102 100 -99 0
-103 91 -82 0
-103 -91 82 0
103 91 82 0
103 -91 -82 0
-104 9 0
-104 12 0
104 -9 -12 0
-105 103 0
-105 104 0
105 -103 -104 0
-106 -104 -103 0
-106 104 103 0
106 -104 103 0
106 104 -103 0
-107 -89 -86 0
-107 89 86 0
107 -89 86 0
107 89 -86 0
-108 10 0
-108 12 0
108 -10 -12 0
-109 107 0
-109 108 0
109 -107 -108 0
-110 106 0
-110 109 0
110 -106 -109 0
-111 -105 0
-111 -110 0
111 105 110 0
-112 102 0
-112 -111 0
112 -102 111 0
-113 -101 0
-113 -112 0
113 101 112 0
-114 113 -98 0
-114 -113 98 0
114 113 98 0
114 -113 -98 0
-115 8 0
-115 13 0
115 -8 -13 0
-116 -115 -114 0
-116 115 114 0
116 -115 114 0
116 115 -114 0
-117 111 -102 0
-117 -111 102 0
117 111 102 0
117 -111 -102 0
-118 9 0
-118 13 0
118 -9 -13 0
-119 117 0
-119 118 0
119 -117 -118 0
-120 -118 -117 0
-120 118 117 0
120 -118 117 0
120 118 -117 0
-121 -109 -106 0
-121 109 106 0
121 -109 106 0
121 109 -106 0
-122 10 0
-122 13 0
122 -10 -13 0
-123 121 0
-123 122 0
123 -121 -122 0
-124 120 0
-124 123 0
124 -120 -123 0
-125 -119 0
-125 -124 0
125 119 124 0
-126 125 -116 0
-126 -125 116 0
126 125 116 0
126 -125 -116 0
-127 9 0
-127 14 0
127 -9 -14 0
-128 -127 -126 0
-128 127 126 0
128 -127 126 0
128 127 -126 0
-129 -123 -120 0
-129 123 120 0
129 -123 120 0
129 123 -120 0
-130 10 0
-130 14 0
130 -10 -14 0
-131 129 0
-131 130 0
131 -129 -130 0
-132 -131 -128 0
-132 131 128 0
132 -131 128 0
132 131 -128 0
-133 10 0
-133 15 0
133 -10 -15 0
-134 -133 -132 0
-134 133 132 0
134 -133 132 0
134 133 -132 0
-135 134 -1 0
-135 -134 1 0
-136 -130 -129 0
-136 130 129 0
136 -130 129 0
136 130 -129 0
-137 136 -16 0
-137 -136 16 0
-138 135 0
-138 137 0
-139 -122 -121 0
-139 122 121 0
139 -122 121 0
139 122 -121 0
-140 139 -17 0
-140 -139 17 0
-141 138 0
-141 140 0
-142 -108 -107 0
-142 108 107 0
142 -108 107 0
142 108 -107 0
-143 142 -18 0
-143 -142 18 0
-144 141 0
-144 143 0
-145 -88 -87 0
-145 88 87 0
145 -88 87 0
145 88 -87 0
-146 145 -19 0
-146 -145 19 0
-147 144 0
-147 146 0
-148 -62 -61 0
-148 62 61 0
148 -62 61 0
148 62 -61 0
-149 148 -20 0
-149 -148 20 0
-150 147 0
-150 149 0
-151 3 0
-151 10 0
151 -3 -10 0
-152 151 -21 0
-152 -151 21 0
-153 150 0
-153 152 0
-154 10 0
-154 15 0
154 -10 -15 0
-155 9 0
-155 14 0
155 -9 -14 0
-156 -155 -154 0
-156 155 154 0
156 -155 154 0
156 155 -154 0
-157 10 0
-157 14 0
157 -10 -14 0
-158 9 0
-158 13 0
158 -9 -13 0
-159 157 0
-159 158 0
159 -157 -158 0
-160 -158 -157 0
-160 158 157 0
160 -158 157 0
160 158 -157 0
-161 10 0
-161 13 0
161 -10 -13 0
-162 9 0
-162 12 0
162 -9 -12 0
-163 161 0
-163 162 0
163 -161 -162 0
-164 -162 -161 0
-164 162 161 0
164 -162 161 0
164 162 -161 0
-165 10 0
-165 12 0
165 -10 -12 0
-166 9 0
-166 11 0
166 -9 -11 0
-167 165 0
-167 166 0
167 -165 -166 0
-168 -166 -165 0
-168 166 165 0
168 -166 165 0
168 166 -165 0
-169 10 0
-169 11 0
169 -10 -11 0
-170 5 0
-170 9 0
170 -5 -9 0
-171 169 0
-171 170 0
171 -169 -170 0
-172 -170 -169 0
-172 170 169 0
172 -170 169 0
172 170 -169 0
-173 5 0
-173 10 0
173 -5 -10 0
-174 3 0
-174 9 0
174 -3 -9 0
-175 173 0
-175 174 0
175 -173 -174 0
-176 172 0
-176 175 0
176 -172 -175 0
-177 -171 0
-177 -176 0
177 171 176 0
-178 168 0
-178 -177 0
178 -168 177 0
-179 -167 0
-179 -178 0
179 167 178 0
-180 164 0
-180 -179 0
180 -164 179 0
-181 -163 0
-181 -180 0
181 163 180 0
-182 160 0
-182 -181 0
182 -160 181 0
-183 -159 0
-183 -182 0
183 159 182 0
-184 183 -156 0
-184 -183 156 0
184 183 156 0
184 -183 -156 0
-185 8 0
-185 13 0
185 -8 -13 0
-186 -185 -184 0
-186 185 184 0
186 -185 184 0
186 185 -184 0
-187 181 -160 0
-187 -181 160 0
187 181 160 0
187 -181 -160 0
-188 8 0
-188 12 0
188 -8 -12 0
-189 187 0
-189 188 0
189 -187 -188 0
-190 -188 -187 0
-190 188 187 0
190 -188 187 0
190 188 -187 0
-191 179 -164 0
-191 -179 164 0
191 179 164 0
191 -179 -164 0
-192 8 0
-192 11 0
192 -8 -11 0
-193 191 0
-193 192 0
193 -191 -192 0
-194 -192 -191 0
-194 192 191 0
194 -192 191 0
194 192 -191 0
-195 177 -168 0
-195 -177 168 0
195 177 168 0
195 -177 -168 0
-196 5 0
-196 8 0
196 -5 -8 0
-197 195 0
-197 196 0
197 -195 -196 0
-198 -196 -195 0
-198 196 195 0
198 -196 195 0
198 196 -195 0
-199 -175 -172 0
-199 175 172 0
199 -175 172 0
199 175 -172 0
-200 3 0
-200 8 0
200 -3 -8 0
-201 199 0
-201 200 0
201 -199 -200 0
-202 198 0
-202 201 0
202 -198 -201 0
-203 -197 0
-203 -202 0
203 197 202 0
-204 194 0
-204 -203 0
204 -194 203 0
-205 -193 0
-205 -204 0
205 193 204 0
-206 190 0
-206 -205 0
206 -190 205 0
-207 -189 0
-207 -206 0
207 189 206 0
-208 207 -186 0
-208 -207 186 0
208 207 186 0
208 -207 -186 0
-209 7 0
-209 12 0
209 -7 -12 0
-210 -209 -208 0
-210 209 208 0
210 -209 208 0
210 209 -208 0
-211 205 -190 0
-211 -205 190 0
211 205 190 0
211 -205 -190 0
-212 7 0
-212 11 0
212 -7 -11 0
-213 211 0
-213 212 0
213 -211 -212 0
-214 -212 -211 0
-214 212 211 0
214 -212 211 0
214 212 -211 0
-215 203 -194 0
-215 -203 194 0
215 203 194 0
215 -203 -194 0
-216 5 0
-216 7 0
216 -5 -7 0
-217 215 0
-217 216 0
217 -215 -216 0
-218 -216 -215 0
-218 216 215 0
218 -216 215 0
218 216 -215 0
-219 -201 -198 0
-219 201 198 0
219 -201 198 0
219 201 -198 0
-220 3 0
-220 7 0
220 -3 -7 0
-221 219 0
-221 220 0
221 -219 -220 0
-222 218 0
-222 221 0
222 -218 -221 0
-223 -217 0
-223 -222 0
223 217 222 0
-224 214 0
-224 -223 0
224 -214 223 0
-225 -213 0
-225 -224 0
225 213 224 0
-226 225 -210 0
-226 -225 210 0
226 225 210 0
226 -225 -210 0
-227 6 0
-227 11 0
227 -6 -11 0
-228 -227 -226 0
-228 227 226 0
228 -227 226 0
228 227 -226 0
-229 223 -214 0
-229 -223 214 0
229 223 214 0
229 -223 -214 0
-230 5 0
-230 6 0
230 -5 -6 0
-231 229 0
-231 230 0
231 -229 -230 0
-232 -230 -229 0
-232 230 229 0
232 -230 229 0
232 230 -229 0
-233 -221 -218 0
-233 221 218 0
233 -221 218 0
233 221 -218 0
-234 3 0
-234 6 0
234 -3 -6 0
-235 233 0
-235 234 0
235 -233 -234 0
-236 232 0
-236 235 0
236 -232 -235 0
-237 -231 0
-237 -236 0
237 231 236 0
-238 237 -228 0
-238 -237 228 0
238 237 228 0
238 -237 -228 0
-239 4 0
-239 5 0
239 -4 -5 0
-240 -239 -238 0
-240 239 238 0
240 -239 238 0
240 239 -238 0
-241 -235 -232 0
-241 235 232 0
241 -235 232 0
241 235 -232 0
-242 3 0
-242 4 0
242 -3 -4 0
-243 241 0
-243 242 0
243 -241 -242 0
-244 -243 -240 0
-244 243 240 0
244 -243 240 0
244 243 -240 0
-245 2 0
-245 3 0
245 -2 -3 0
-246 -245 -244 0
-246 245 244 0
246 -245 244 0
246 245 -244 0
-247 246 -22 0
-247 -246 22 0
-248 -242 -241 0
-248 242 241 0
248 -242 241 0
248 242 -241 0
-249 248 -23 0
-249 -248 23 0
-250 247 0
-250 249 0
-251 -234 -233 0
-251 234 233 0
251 -234 233 0
251 234 -233 0
-252 251 -24 0
-252 -251 24 0
-253 250 0
-253 252 0
-254 -220 -219 0
-254 220 219 0
254 -220 219 0
254 220 -219 0
-255 254 -25 0
-255 -254 25 0
-256 253 0
-256 255 0
-257 -200 -199 0
-257 200 199 0
257 -200 199 0
257 200 -199 0
-258 257 -26 0
-258 -257 26 0
-259 256 0
-259 258 0
-260 -174 -173 0
-260 174 173 0
260 -174 173 0
260 174 -173 0
-261 260 -27 0
-261 -260 27 0
-262 259 0
-262 261 0
-263 3 0
-263 10 0
263 -3 -10 0
-264 263 -28 0
-264 -263 28 0
-265 262 0
-265 264 0
-266 153 0
-266 265 0
-267 -41 0
-267 266 0
267 0
