p cnf 31 67
-7 4 0
-7 6 0
7 -4 -6 0
-8 1 0
-8 7 0
8 -1 -7 0
-9 3 0
-9 6 0
9 -3 -6 0
-10 4 0
-10 5 0
10 -4 -5 0
-11 -10 -9 0
-11 10 9 0
11 -10 9 0
11 10 -9 0
-12 2 0
-12 11 0
12 -2 -11 0
-13 -12 -8 0
-13 12 8 0
13 -12 8 0
13 12 -8 0
-14 1 0
-14 4 0
14 -1 -4 0
-15 2 0
-15 3 0
15 -2 -3 0
-16 -15 -14 0
-16 15 14 0
16 -15 14 0
16 15 -14 0
-17 6 0
-17 16 0
17 -6 -16 0
-18 2 0
-18 4 0
18 -2 -4 0
-19 5 0
-19 18 0
19 -5 -18 0
-20 -19 -17 0
-20 19 17 0
20 -19 17 0
20 19 -17 0
21 20 13 0
21 -20 -13 0
-22 2 0
-22 7 0
22 -2 -7 0
-23 6 0
-23 18 0
23 -6 -18 0
24 23 22 0
24 -23 -22 0
25 -21 -24 0
26 -5 -6 0
27 -1 -2 0
28 -3 -4 0
-29 -27 0
-29 -28 0
-30 -26 0
-30 29 0
-31 -25 0
-31 30 0
31 0
