p cnf 601 1882
-25 19 0
-25 20 0
25 -19 -20 0
-26 1 0
-26 25 0
26 -1 -25 0
-27 20 0
-27 21 0
27 -20 -21 0
-28 19 0
-28 22 0
28 -19 -22 0
-29 27 0
-29 28 0
29 -27 -28 0
-30 -28 -27 0
-30 28 27 0
30 -28 27 0
30 28 -27 0
-31 2 0
-31 30 0
31 -2 -30 0
-32 -31 -26 0
-32 31 26 0
32 -31 26 0
32 31 -26 0
-33 2 0
-33 25 0
33 -2 -25 0
-34 3 0
-34 30 0
34 -3 -30 0
-35 33 0
-35 34 0
35 -33 -34 0
-36 -34 -33 0
-36 34 33 0
36 -34 33 0
36 34 -33 0
-37 3 0
-37 25 0
37 -3 -25 0
-38 4 0
-38 30 0
38 -4 -30 0
-39 37 0
-39 38 0
39 -37 -38 0
-40 -38 -37 0
-40 38 37 0
40 -38 37 0
40 38 -37 0
-41 4 0
-41 25 0
41 -4 -25 0
-42 5 0
-42 30 0
42 -5 -30 0
-43 41 0
-43 42 0
43 -41 -42 0
-44 -42 -41 0
-44 42 41 0
44 -42 41 0
44 42 -41 0
-45 5 0
-45 25 0
45 -5 -25 0
-46 6 0
-46 30 0
46 -6 -30 0
-47 45 0
-47 46 0
47 -45 -46 0
-48 -46 -45 0
-48 46 45 0
48 -46 45 0
48 46 -45 0
-49 6 0
-49 25 0
49 -6 -25 0
-50 23 0
-50 30 0
50 -23 -30 0
-51 49 0
-51 50 0
51 -49 -50 0
-52 -50 -49 0
-52 50 49 0
52 -50 49 0
52 50 -49 0
-53 23 0
-53 25 0
53 -23 -25 0
-54 24 0
-54 30 0
54 -24 -30 0
-55 53 0
-55 54 0
55 -53 -54 0
-56 52 0
-56 55 0
56 -52 -55 0
-57 -51 0
-57 -56 0
57 51 56 0
-58 48 0
-58 -57 0
58 -48 57 0
-59 -47 0
-59 -58 0
59 47 58 0
-60 44 0
-60 -59 0
60 -44 59 0
-61 -43 0
-61 -60 0
61 43 60 0
-62 40 0
-62 -61 0
62 -40 61 0
-63 -39 0
-63 -62 0
63 39 62 0
-64 36 0
-64 -63 0
64 -36 63 0
-65 -35 0
-65 -64 0
65 35 64 0
-66 65 -32 0
-66 -65 32 0
66 65 32 0
66 -65 -32 0
-67 12 0
-67 20 0
67 -12 -20 0
-68 21 0
-68 22 0
68 -21 -22 0
-69 67 0
-69 68 0
69 -67 -68 0
-70 -68 -67 0
-70 68 67 0
70 -68 67 0
70 68 -67 0
-71 29 0
-71 70 0
71 -29 -70 0
-72 -70 -29 0
-72 70 29 0
72 -70 29 0
72 70 -29 0
-73 18 0
-73 19 0
73 -18 -19 0
-74 72 0
-74 73 0
74 -72 -73 0
-75 -73 -72 0
-75 73 72 0
75 -73 72 0
75 73 -72 0
-76 3 0
-76 75 0
76 -3 -75 0
-77 -76 -66 0
-77 76 66 0
77 -76 66 0
77 76 -66 0
-78 63 -36 0
-78 -63 36 0
78 63 36 0
78 -63 -36 0
-79 4 0
-79 75 0
79 -4 -75 0
-80 78 0
-80 79 0
80 -78 -79 0
-81 -79 -78 0
-81 79 78 0
81 -79 78 0
81 79 -78 0
-82 61 -40 0
-82 -61 40 0
82 61 40 0
82 -61 -40 0
-83 5 0
-83 75 0
83 -5 -75 0
-84 82 0
-84 83 0
84 -82 -83 0
-85 -83 -82 0
-85 83 82 0
85 -83 82 0
85 83 -82 0
-86 59 -44 0
-86 -59 44 0
86 59 44 0
86 -59 -44 0
-87 6 0
-87 75 0
87 -6 -75 0
-88 86 0
-88 87 0
88 -86 -87 0
-89 -87 -86 0
-89 87 86 0
89 -87 86 0
89 87 -86 0
-90 57 -48 0
-90 -57 48 0
90 57 48 0
90 -57 -48 0
-91 23 0
-91 75 0
91 -23 -75 0
-92 90 0
-92 91 0
92 -90 -91 0
-93 -91 -90 0
-93 91 90 0
93 -91 90 0
93 91 -90 0
-94 -55 -52 0
-94 55 52 0
94 -55 52 0
94 55 -52 0
-95 24 0
-95 75 0
95 -24 -75 0
-96 94 0
-96 95 0
96 -94 -95 0
-97 93 0
-97 96 0
97 -93 -96 0
-98 -92 0
-98 -97 0
98 92 97 0
-99 89 0
-99 -98 0
99 -89 98 0
-100 -88 0
-100 -99 0
100 88 99 0
-101 85 0
-101 -100 0
101 -85 100 0
-102 -84 0
-102 -101 0
102 84 101 0
-103 81 0
-103 -102 0
103 -81 102 0
-104 -80 0
-104 -103 0
104 80 103 0
-105 104 -77 0
-105 -104 77 0
105 104 77 0
105 -104 -77 0
-106 11 0
-106 20 0
106 -11 -20 0
-107 12 0
-107 22 0
107 -12 -22 0
-108 106 0
-108 107 0
108 -106 -107 0
-109 -107 -106 0
-109 107 106 0
109 -107 106 0
109 107 -106 0
-110 -69 0
-110 -71 0
110 69 71 0
-111 109 0
-111 -110 0
111 -109 110 0
-112 110 -109 0
-112 -110 109 0
112 110 109 0
112 -110 -109 0
-113 18 0
-113 21 0
113 -18 -21 0
-114 112 0
-114 113 0
114 -112 -113 0
-115 -113 -112 0
-115 113 112 0
115 -113 112 0
115 113 -112 0
-116 74 0
-116 115 0
116 -74 -115 0
-117 -115 -74 0
-117 115 74 0
117 -115 74 0
117 115 -74 0
-118 17 0
-118 19 0
118 -17 -19 0
-119 117 0
-119 118 0
119 -117 -118 0
-120 -118 -117 0
-120 118 117 0
120 -118 117 0
120 118 -117 0
-121 4 0
-121 120 0
121 -4 -120 0
-122 -121 -105 0
-122 121 105 0
122 -121 105 0
122 121 -105 0
-123 102 -81 0
-123 -102 81 0
123 102 81 0
123 -102 -81 0
-124 5 0
-124 120 0
124 -5 -120 0
-125 123 0
-125 124 0
125 -123 -124 0
-126 -124 -123 0
-126 124 123 0
126 -124 123 0
126 124 -123 0
-127 100 -85 0
-127 -100 85 0
127 100 85 0
127 -100 -85 0
-128 6 0
-128 120 0
128 -6 -120 0
-129 127 0
-129 128 0
129 -127 -128 0
-130 -128 -127 0
-130 128 127 0
130 -128 127 0
130 128 -127 0
-131 98 -89 0
-131 -98 89 0
131 98 89 0
131 -98 -89 0
-132 23 0
-132 120 0
132 -23 -120 0
-133 131 0
-133 132 0
133 -131 -132 0
-134 -132 -131 0
-134 132 131 0
134 -132 131 0
134 132 -131 0
-135 -96 -93 0
-135 96 93 0
135 -96 93 0
135 96 -93 0
-136 24 0
-136 120 0
136 -24 -120 0
-137 135 0
-137 136 0
137 -135 -136 0
-138 134 0
-138 137 0
138 -134 -137 0
-139 -133 0
-139 -138 0
139 133 138 0
-140 130 0
-140 -139 0
140 -130 139 0
-141 -129 0
-141 -140 0
141 129 140 0
-142 126 0
-142 -141 0
142 -126 141 0
-143 -125 0
-143 -142 0
143 125 142 0
-144 143 -122 0
-144 -143 122 0
144 143 122 0
144 -143 -122 0
-145 10 0
-145 20 0
145 -10 -20 0
-146 11 0
-146 22 0
146 -11 -22 0
-147 145 0
-147 146 0
147 -145 -146 0
-148 -146 -145 0
-148 146 145 0
148 -146 145 0
148 146 -145 0
-149 -108 0
-149 -111 0
149 108 111 0
-150 148 0
-150 -149 0
150 -148 149 0
-151 149 -148 0
-151 -149 148 0
151 149 148 0
151 -149 -148 0
-152 12 0
-152 18 0
152 -12 -18 0
-153 151 0
-153 152 0
153 -151 -152 0
-154 -152 -151 0
-154 152 151 0
154 -152 151 0
154 152 -151 0
-155 -114 0
-155 -116 0
155 114 116 0
-156 154 0
-156 -155 0
156 -154 155 0
-157 155 -154 0
-157 -155 154 0
157 155 154 0
157 -155 -154 0
-158 17 0
-158 21 0
158 -17 -21 0
-159 157 0
-159 158 0
159 -157 -158 0
-160 -158 -157 0
-160 158 157 0
160 -158 157 0
160 158 -157 0
-161 119 0
-161 160 0
161 -119 -160 0
-162 -160 -119 0
-162 160 119 0
162 -160 119 0
162 160 -119 0
-163 16 0
-163 19 0
163 -16 -19 0
-164 162 0
-164 163 0
164 -162 -163 0
-165 -163 -162 0
-165 163 162 0
165 -163 162 0
165 163 -162 0
-166 5 0
-166 165 0
166 -5 -165 0
-167 -166 -144 0
-167 166 144 0
167 -166 144 0
167 166 -144 0
-168 141 -126 0
-168 -141 126 0
168 141 126 0
168 -141 -126 0
-169 6 0
-169 165 0
169 -6 -165 0
-170 168 0
-170 169 0
170 -168 -169 0
-171 -169 -168 0
-171 169 168 0
171 -169 168 0
171 169 -168 0
-172 139 -130 0
-172 -139 130 0
172 139 130 0
172 -139 -130 0
-173 23 0
-173 165 0
173 -23 -165 0
-174 172 0
-174 173 0
174 -172 -173 0
-175 -173 -172 0
-175 173 172 0
175 -173 172 0
175 173 -172 0
-176 -137 -134 0
-176 137 134 0
176 -137 134 0
176 137 -134 0
-177 24 0
-177 165 0
177 -24 -165 0
-178 176 0
-178 177 0
178 -176 -177 0
-179 175 0
-179 178 0
179 -175 -178 0
-180 -174 0
-180 -179 0
180 174 179 0
-181 171 0
-181 -180 0
181 -171 180 0
-182 -170 0
-182 -181 0
182 170 181 0
-183 182 -167 0
-183 -182 167 0
183 182 167 0
183 -182 -167 0
-184 9 0
-184 20 0
184 -9 -20 0
-185 10 0
-185 22 0
185 -10 -22 0
-186 184 0
-186 185 0
186 -184 -185 0
-187 -185 -184 0
-187 185 184 0
187 -185 184 0
187 185 -184 0
-188 -147 0
-188 -150 0
188 147 150 0
-189 187 0
-189 -188 0
189 -187 188 0
-190 188 -187 0
-190 -188 187 0
190 188 187 0
190 -188 -187 0
-191 11 0
-191 18 0
191 -11 -18 0
-192 190 0
-192 191 0
192 -190 -191 0
-193 -191 -190 0
-193 191 190 0
193 -191 190 0
193 191 -190 0
-194 -153 0
-194 -156 0
194 153 156 0
-195 193 0
-195 -194 0
195 -193 194 0
-196 194 -193 0
-196 -194 193 0
196 194 193 0
196 -194 -193 0
-197 12 0
-197 17 0
197 -12 -17 0
-198 196 0
-198 197 0
198 -196 -197 0
-199 -197 -196 0
-199 197 196 0
199 -197 196 0
199 197 -196 0
-200 -159 0
-200 -161 0
200 159 161 0
-201 199 0
-201 -200 0
201 -199 200 0
-202 200 -199 0
-202 -200 199 0
202 200 199 0
202 -200 -199 0
-203 16 0
-203 21 0
203 -16 -21 0
-204 202 0
-204 203 0
204 -202 -203 0
-205 -203 -202 0
-205 203 202 0
205 -203 202 0
205 203 -202 0
-206 164 0
-206 205 0
206 -164 -205 0
-207 -205 -164 0
-207 205 164 0
207 -205 164 0
207 205 -164 0
-208 15 0
-208 19 0
208 -15 -19 0
-209 207 0
-209 208 0
209 -207 -208 0
-210 -208 -207 0
-210 208 207 0
210 -208 207 0
210 208 -207 0
-211 6 0
-211 210 0
211 -6 -210 0
-212 -211 -183 0
-212 211 183 0
212 -211 183 0
212 211 -183 0
-213 180 -171 0
-213 -180 171 0
213 180 171 0
213 -180 -171 0
-214 23 0
-214 210 0
214 -23 -210 0
-215 213 0
-215 214 0
215 -213 -214 0
-216 -214 -213 0
-216 214 213 0
216 -214 213 0
216 214 -213 0
-217 -178 -175 0
-217 178 175 0
217 -178 175 0
217 178 -175 0
-218 24 0
-218 210 0
218 -24 -210 0
-219 217 0
-219 218 0
219 -217 -218 0
-220 216 0
-220 219 0
220 -216 -219 0
-221 -215 0
-221 -220 0
221 215 220 0
-222 221 -212 0
-222 -221 212 0
222 221 212 0
222 -221 -212 0
-223 8 0
-223 20 0
223 -8 -20 0
-224 9 0
-224 22 0
224 -9 -22 0
-225 223 0
-225 224 0
225 -223 -224 0
-226 -224 -223 0
-226 224 223 0
226 -224 223 0
226 224 -223 0
-227 -186 0
-227 -189 0
227 186 189 0
-228 226 0
-228 -227 0
228 -226 227 0
-229 227 -226 0
-229 -227 226 0
229 227 226 0
229 -227 -226 0
-230 10 0
-230 18 0
230 -10 -18 0
-231 229 0
-231 230 0
231 -229 -230 0
-232 -230 -229 0
-232 230 229 0
232 -230 229 0
232 230 -229 0
-233 -192 0
-233 -195 0
233 192 195 0
-234 232 0
-234 -233 0
234 -232 233 0
-235 233 -232 0
-235 -233 232 0
235 233 232 0
235 -233 -232 0
-236 11 0
-236 17 0
236 -11 -17 0
-237 235 0
-237 236 0
237 -235 -236 0
-238 -236 -235 0
-238 236 235 0
238 -236 235 0
238 236 -235 0
-239 -198 0
-239 -201 0
239 198 201 0
-240 238 0
-240 -239 0
240 -238 239 0
-241 239 -238 0
-241 -239 238 0
241 239 238 0
241 -239 -238 0
-242 12 0
-242 16 0
242 -12 -16 0
-243 241 0
-243 242 0
243 -241 -242 0
-244 -242 -241 0
-244 242 241 0
244 -242 241 0
244 242 -241 0
-245 -204 0
-245 -206 0
245 204 206 0
-246 244 0
-246 -245 0
246 -244 245 0
-247 245 -244 0
-247 -245 244 0
247 245 244 0
247 -245 -244 0
-248 15 0
-248 21 0
248 -15 -21 0
-249 247 0
-249 248 0
249 -247 -248 0
-250 -248 -247 0
-250 248 247 0
250 -248 247 0
250 248 -247 0
-251 209 0
-251 250 0
251 -209 -250 0
-252 -250 -209 0
-252 250 209 0
252 -250 209 0
252 250 -209 0
-253 14 0
-253 19 0
253 -14 -19 0
-254 252 0
-254 253 0
254 -252 -253 0
-255 -253 -252 0
-255 253 252 0
255 -253 252 0
255 253 -252 0
-256 23 0
-256 255 0
256 -23 -255 0
-257 -256 -222 0
-257 256 222 0
257 -256 222 0
257 256 -222 0
-258 -219 -216 0
-258 219 216 0
258 -219 216 0
258 219 -216 0
-259 24 0
-259 255 0
259 -24 -255 0
-260 258 0
-260 259 0
260 -258 -259 0
-261 -260 -257 0
-261 260 257 0
261 -260 257 0
261 260 -257 0
-262 7 0
-262 20 0
262 -7 -20 0
-263 8 0
-263 22 0
263 -8 -22 0
-264 -263 -262 0
-264 263 262 0
264 -263 262 0
264 263 -262 0
-265 -225 0
-265 -228 0
265 225 228 0
-266 265 -264 0
-266 -265 264 0
266 265 264 0
266 -265 -264 0
-267 9 0
-267 18 0
267 -9 -18 0
-268 -267 -266 0
-268 267 266 0
268 -267 266 0
268 267 -266 0
-269 -231 0
-269 -234 0
269 231 234 0
-270 269 -268 0
-270 -269 268 0
270 269 268 0
270 -269 -268 0
-271 10 0
-271 17 0
271 -10 -17 0
-272 -271 -270 0
-272 271 270 0
272 -271 270 0
272 271 -270 0
-273 -237 0
-273 -240 0
273 237 240 0
-274 273 -272 0
-274 -273 272 0
274 273 272 0
274 -273 -272 0
-275 11 0
-275 16 0
275 -11 -16 0
-276 -275 -274 0
-276 275 274 0
276 -275 274 0
276 275 -274 0
-277 -243 0
-277 -246 0
277 243 246 0
-278 277 -276 0
-278 -277 276 0
278 277 276 0
278 -277 -276 0
-279 12 0
-279 15 0
279 -12 -15 0
-280 -279 -278 0
-280 279 278 0
280 -279 278 0
280 279 -278 0
-281 -249 0
-281 -251 0
281 249 251 0
-282 281 -280 0
-282 -281 280 0
282 281 280 0
282 -281 -280 0
-283 14 0
-283 21 0
283 -14 -21 0
-284 -283 -282 0
-284 283 282 0
284 -283 282 0
284 283 -282 0
-285 -284 -254 0
-285 284 254 0
285 -284 254 0
285 284 -254 0
-286 13 0
-286 19 0
286 -13 -19 0
-287 -286 -285 0
-287 286 285 0
287 -286 285 0
287 286 -285 0
-288 24 0
-288 287 0
288 -24 -287 0
-289 -288 -261 0
-289 288 261 0
289 -288 261 0
289 288 -261 0
-290 1 0
-290 19 0
290 -1 -19 0
-291 2 0
-291 21 0
291 -2 -21 0
-292 -291 -290 0
-292 291 290 0
292 -291 290 0
292 291 -290 0
-293 2 0
-293 19 0
293 -2 -19 0
-294 3 0
-294 21 0
294 -3 -21 0
-295 293 0
-295 294 0
295 -293 -294 0
-296 -294 -293 0
-296 294 293 0
296 -294 293 0
296 294 -293 0
-297 3 0
-297 19 0
297 -3 -19 0
-298 4 0
-298 21 0
298 -4 -21 0
-299 297 0
-299 298 0
299 -297 -298 0
-300 -298 -297 0
-300 298 297 0
300 -298 297 0
300 298 -297 0
-301 4 0
-301 19 0
301 -4 -19 0
-302 5 0
-302 21 0
302 -5 -21 0
-303 301 0
-303 302 0
303 -301 -302 0
-304 -302 -301 0
-304 302 301 0
304 -302 301 0
304 302 -301 0
-305 5 0
-305 19 0
305 -5 -19 0
-306 6 0
-306 21 0
306 -6 -21 0
-307 305 0
-307 306 0
307 -305 -306 0
-308 -306 -305 0
-308 306 305 0
308 -306 305 0
308 306 -305 0
-309 6 0
-309 19 0
309 -6 -19 0
-310 21 0
-310 23 0
310 -21 -23 0
-311 309 0
-311 310 0
311 -309 -310 0
-312 -310 -309 0
-312 310 309 0
312 -310 309 0
312 310 -309 0
-313 19 0
-313 23 0
313 -19 -23 0
-314 21 0
-314 24 0
314 -21 -24 0
-315 313 0
-315 314 0
315 -313 -314 0
-316 312 0
-316 315 0
316 -312 -315 0
-317 -311 0
-317 -316 0
317 311 316 0
-318 308 0
-318 -317 0
318 -308 317 0
-319 -307 0
-319 -318 0
319 307 318 0
-320 304 0
-320 -319 0
320 -304 319 0
-321 -303 0
-321 -320 0
321 303 320 0
-322 300 0
-322 -321 0
322 -300 321 0
-323 -299 0
-323 -322 0
323 299 322 0
-324 296 0
-324 -323 0
324 -296 323 0
-325 -295 0
-325 -324 0
325 295 324 0
-326 325 -292 0
-326 -325 292 0
326 325 292 0
326 -325 -292 0
-327 3 0
-327 12 0
327 -3 -12 0
-328 -327 -326 0
-328 327 326 0
328 -327 326 0
328 327 -326 0
-329 323 -296 0
-329 -323 296 0
329 323 296 0
329 -323 -296 0
-330 4 0
-330 12 0
330 -4 -12 0
-331 329 0
-331 330 0
331 -329 -330 0
-332 -330 -329 0
-332 330 329 0
332 -330 329 0
332 330 -329 0
-333 321 -300 0
-333 -321 300 0
333 321 300 0
333 -321 -300 0
-334 5 0
-334 12 0
334 -5 -12 0
-335 333 0
-335 334 0
335 -333 -334 0
-336 -334 -333 0
-336 334 333 0
336 -334 333 0
336 334 -333 0
-337 319 -304 0
-337 -319 304 0
337 319 304 0
337 -319 -304 0
-338 6 0
-338 12 0
338 -6 -12 0
-339 337 0
-339 338 0
339 -337 -338 0
-340 -338 -337 0
-340 338 337 0
340 -338 337 0
340 338 -337 0
-341 317 -308 0
-341 -317 308 0
341 317 308 0
341 -317 -308 0
-342 12 0
-342 23 0
342 -12 -23 0
-343 341 0
-343 342 0
343 -341 -342 0
-344 -342 -341 0
-344 342 341 0
344 -342 341 0
344 342 -341 0
-345 -315 -312 0
-345 315 312 0
345 -315 312 0
345 315 -312 0
-346 12 0
-346 24 0
346 -12 -24 0
-347 345 0
-347 346 0
347 -345 -346 0
-348 344 0
-348 347 0
348 -344 -347 0
-349 -343 0
-349 -348 0
349 343 348 0
-350 340 0
-350 -349 0
350 -340 349 0
-351 -339 0
-351 -350 0
351 339 350 0
-352 336 0
-352 -351 0
352 -336 351 0
-353 -335 0
-353 -352 0
353 335 352 0
-354 332 0
-354 -353 0
354 -332 353 0
-355 -331 0
-355 -354 0
355 331 354 0
-356 355 -328 0
-356 -355 328 0
356 355 328 0
356 -355 -328 0
-357 4 0
-357 11 0
357 -4 -11 0
-358 -357 -356 0
-358 357 356 0
358 -357 356 0
358 357 -356 0
-359 353 -332 0
-359 -353 332 0
359 353 332 0
359 -353 -332 0
-360 5 0
-360 11 0
360 -5 -11 0
-361 359 0
-361 360 0
361 -359 -360 0
-362 -360 -359 0
-362 360 359 0
362 -360 359 0
362 360 -359 0
-363 351 -336 0
-363 -351 336 0
363 351 336 0
363 -351 -336 0
-364 6 0
-364 11 0
364 -6 -11 0
-365 363 0
-365 364 0
365 -363 -364 0
-366 -364 -363 0
-366 364 363 0
366 -364 363 0
366 364 -363 0
-367 349 -340 0
-367 -349 340 0
367 349 340 0
367 -349 -340 0
-368 11 0
-368 23 0
368 -11 -23 0
-369 367 0
-369 368 0
369 -367 -368 0
-370 -368 -367 0
-370 368 367 0
370 -368 367 0
370 368 -367 0
-371 -347 -344 0
-371 347 344 0
371 -347 344 0
371 347 -344 0
-372 11 0
-372 24 0
372 -11 -24 0
-373 371 0
-373 372 0
373 -371 -372 0
-374 370 0
-374 373 0
374 -370 -373 0
-375 -369 0
-375 -374 0
375 369 374 0
-376 366 0
-376 -375 0
376 -366 375 0
-377 -365 0
-377 -376 0
377 365 376 0
-378 362 0
-378 -377 0
378 -362 377 0
-379 -361 0
-379 -378 0
379 361 378 0
-380 379 -358 0
-380 -379 358 0
380 379 358 0
380 -379 -358 0
-381 5 0
-381 10 0
381 -5 -10 0
-382 -381 -380 0
-382 381 380 0
382 -381 380 0
382 381 -380 0
-383 377 -362 0
-383 -377 362 0
383 377 362 0
383 -377 -362 0
-384 6 0
-384 10 0
384 -6 -10 0
-385 383 0
-385 384 0
385 -383 -384 0
-386 -384 -383 0
-386 384 383 0
386 -384 383 0
386 384 -383 0
-387 375 -366 0
-387 -375 366 0
387 375 366 0
387 -375 -366 0
-388 10 0
-388 23 0
388 -10 -23 0
-389 387 0
-389 388 0
389 -387 -388 0
-390 -388 -387 0
-390 388 387 0
390 -388 387 0
390 388 -387 0
-391 -373 -370 0
-391 373 370 0
391 -373 370 0
391 373 -370 0
-392 10 0
-392 24 0
392 -10 -24 0
-393 391 0
-393 392 0
393 -391 -392 0
-394 390 0
-394 393 0
394 -390 -393 0
-395 -389 0
-395 -394 0
395 389 394 0
-396 386 0
-396 -395 0
396 -386 395 0
-397 -385 0
-397 -396 0
397 385 396 0
-398 397 -382 0
-398 -397 382 0
398 397 382 0
398 -397 -382 0
-399 6 0
-399 9 0
399 -6 -9 0
-400 -399 -398 0
-400 399 398 0
400 -399 398 0
400 399 -398 0
-401 395 -386 0
-401 -395 386 0
401 395 386 0
401 -395 -386 0
-402 9 0
-402 23 0
402 -9 -23 0
-403 401 0
-403 402 0
403 -401 -402 0
-404 -402 -401 0
-404 402 401 0
404 -402 401 0
404 402 -401 0
-405 -393 -390 0
-405 393 390 0
405 -393 390 0
405 393 -390 0
-406 9 0
-406 24 0
406 -9 -24 0
-407 405 0
-407 406 0
407 -405 -406 0
-408 404 0
-408 407 0
408 -404 -407 0
-409 -403 0
-409 -408 0
409 403 408 0
-410 409 -400 0
-410 -409 400 0
410 409 400 0
410 -409 -400 0
-411 8 0
-411 23 0
411 -8 -23 0
-412 -411 -410 0
-412 411 410 0
412 -411 410 0
412 411 -410 0
-413 -407 -404 0
-413 407 404 0
413 -407 404 0
413 407 -404 0
-414 8 0
-414 24 0
414 -8 -24 0
-415 413 0
-415 414 0
415 -413 -414 0
-416 -415 -412 0
-416 415 412 0
416 -415 412 0
416 415 -412 0
-417 7 0
-417 24 0
417 -7 -24 0
-418 -417 -416 0
-418 417 416 0
418 -417 416 0
418 417 -416 0
-419 20 0
-419 418 0
419 -20 -418 0
-420 -414 -413 0
-420 414 413 0
420 -414 413 0
420 414 -413 0
-421 22 0
-421 420 0
421 -22 -420 0
-422 -421 -419 0
-422 421 419 0
422 -421 419 0
422 421 -419 0
-423 20 0
-423 420 0
423 -20 -420 0
-424 -406 -405 0
-424 406 405 0
424 -406 405 0
424 406 -405 0
-425 22 0
-425 424 0
425 -22 -424 0
-426 423 0
-426 425 0
426 -423 -425 0
-427 -425 -423 0
-427 425 423 0
427 -425 423 0
427 425 -423 0
-428 20 0
-428 424 0
428 -20 -424 0
-429 -392 -391 0
-429 392 391 0
429 -392 391 0
429 392 -391 0
-430 22 0
-430 429 0
430 -22 -429 0
-431 428 0
-431 430 0
431 -428 -430 0
-432 -430 -428 0
-432 430 428 0
432 -430 428 0
432 430 -428 0
-433 20 0
-433 429 0
433 -20 -429 0
-434 -372 -371 0
-434 372 371 0
434 -372 371 0
434 372 -371 0
-435 22 0
-435 434 0
435 -22 -434 0
-436 433 0
-436 435 0
436 -433 -435 0
-437 -435 -433 0
-437 435 433 0
437 -435 433 0
437 435 -433 0
-438 20 0
-438 434 0
438 -20 -434 0
-439 -346 -345 0
-439 346 345 0
439 -346 345 0
439 346 -345 0
-440 22 0
-440 439 0
440 -22 -439 0
-441 438 0
-441 440 0
441 -438 -440 0
-442 -440 -438 0
-442 440 438 0
442 -440 438 0
442 440 -438 0
-443 20 0
-443 439 0
443 -20 -439 0
-444 -314 -313 0
-444 314 313 0
444 -314 313 0
444 314 -313 0
-445 22 0
-445 444 0
445 -22 -444 0
-446 443 0
-446 445 0
446 -443 -445 0
-447 -445 -443 0
-447 445 443 0
447 -445 443 0
447 445 -443 0
-448 20 0
-448 444 0
448 -20 -444 0
-449 19 0
-449 24 0
449 -19 -24 0
-450 22 0
-450 449 0
450 -22 -449 0
-451 448 0
-451 450 0
451 -448 -450 0
-452 447 0
-452 451 0
452 -447 -451 0
-453 -446 0
-453 -452 0
453 446 452 0
-454 442 0
-454 -453 0
454 -442 453 0
-455 -441 0
-455 -454 0
455 441 454 0
-456 437 0
-456 -455 0
456 -437 455 0
-457 -436 0
-457 -456 0
457 436 456 0
-458 432 0
-458 -457 0
458 -432 457 0
-459 -431 0
-459 -458 0
459 431 458 0
-460 427 0
-460 -459 0
460 -427 459 0
-461 -426 0
-461 -460 0
461 426 460 0
-462 461 -422 0
-462 -461 422 0
462 461 422 0
462 -461 -422 0
-463 18 0
-463 424 0
463 -18 -424 0
-464 -463 -462 0
-464 463 462 0
464 -463 462 0
464 463 -462 0
-465 459 -427 0
-465 -459 427 0
465 459 427 0
465 -459 -427 0
-466 18 0
-466 429 0
466 -18 -429 0
-467 465 0
-467 466 0
467 -465 -466 0
-468 -466 -465 0
-468 466 465 0
468 -466 465 0
468 466 -465 0
-469 457 -432 0
-469 -457 432 0
469 457 432 0
469 -457 -432 0
-470 18 0
-470 434 0
470 -18 -434 0
-471 469 0
-471 470 0
471 -469 -470 0
-472 -470 -469 0
-472 470 469 0
472 -470 469 0
472 470 -469 0
-473 455 -437 0
-473 -455 437 0
473 455 437 0
473 -455 -437 0
-474 18 0
-474 439 0
474 -18 -439 0
-475 473 0
-475 474 0
475 -473 -474 0
-476 -474 -473 0
-476 474 473 0
476 -474 473 0
476 474 -473 0
-477 453 -442 0
-477 -453 442 0
477 453 442 0
477 -453 -442 0
-478 18 0
-478 444 0
478 -18 -444 0
-479 477 0
-479 478 0
479 -477 -478 0
-480 -478 -477 0
-480 478 477 0
480 -478 477 0
480 478 -477 0
-481 -451 -447 0
-481 451 447 0
481 -451 447 0
481 451 -447 0
-482 18 0
-482 449 0
482 -18 -449 0
-483 481 0
-483 482 0
483 -481 -482 0
-484 480 0
-484 483 0
484 -480 -483 0
-485 -479 0
-485 -484 0
485 479 484 0
-486 476 0
-486 -485 0
486 -476 485 0
-487 -475 0
-487 -486 0
487 475 486 0
-488 472 0
-488 -487 0
488 -472 487 0
-489 -471 0
-489 -488 0
489 471 488 0
-490 468 0
-490 -489 0
490 -468 489 0
-491 -467 0
-491 -490 0
491 467 490 0
-492 491 -464 0
-492 -491 464 0
492 491 464 0
492 -491 -464 0
-493 17 0
-493 429 0
493 -17 -429 0
-494 -493 -492 0
-494 493 492 0
494 -493 492 0
494 493 -492 0
-495 489 -468 0
-495 -489 468 0
495 489 468 0
495 -489 -468 0
-496 17 0
-496 434 0
496 -17 -434 0
-497 495 0
-497 496 0
497 -495 -496 0
-498 -496 -495 0
-498 496 495 0
498 -496 495 0
498 496 -495 0
-499 487 -472 0
-499 -487 472 0
499 487 472 0
499 -487 -472 0
-500 17 0
-500 439 0
500 -17 -439 0
-501 499 0
-501 500 0
501 -499 -500 0
-502 -500 -499 0
-502 500 499 0
502 -500 499 0
502 500 -499 0
-503 485 -476 0
-503 -485 476 0
503 485 476 0
503 -485 -476 0
-504 17 0
-504 444 0
504 -17 -444 0
-505 503 0
-505 504 0
505 -503 -504 0
-506 -504 -503 0
-506 504 503 0
506 -504 503 0
506 504 -503 0
-507 -483 -480 0
-507 483 480 0
507 -483 480 0
507 483 -480 0
-508 17 0
-508 449 0
508 -17 -449 0
-509 507 0
-509 508 0
509 -507 -508 0
-510 506 0
-510 509 0
510 -506 -509 0
-511 -505 0
-511 -510 0
511 505 510 0
-512 502 0
-512 -511 0
512 -502 511 0
-513 -501 0
-513 -512 0
513 501 512 0
-514 498 0
-514 -513 0
514 -498 513 0
-515 -497 0
-515 -514 0
515 497 514 0
-516 515 -494 0
-516 -515 494 0
516 515 494 0
516 -515 -494 0
-517 16 0
-517 434 0
517 -16 -434 0
-518 -517 -516 0
-518 517 516 0
518 -517 516 0
518 517 -516 0
-519 513 -498 0
-519 -513 498 0
519 513 498 0
519 -513 -498 0
-520 16 0
-520 439 0
520 -16 -439 0
-521 519 0
-521 520 0
521 -519 -520 0
-522 -520 -519 0
-522 520 519 0
522 -520 519 0
522 520 -519 0
-523 511 -502 0
-523 -511 502 0
523 511 502 0
523 -511 -502 0
-524 16 0
-524 444 0
524 -16 -444 0
-525 523 0
-525 524 0
525 -523 -524 0
-526 -524 -523 0
-526 524 523 0
526 -524 523 0
526 524 -523 0
-527 -509 -506 0
-527 509 506 0
527 -509 506 0
527 509 -506 0
-528 16 0
-528 449 0
528 -16 -449 0
-529 527 0
-529 528 0
529 -527 -528 0
-530 526 0
-530 529 0
530 -526 -529 0
-531 -525 0
-531 -530 0
531 525 530 0
-532 522 0
-532 -531 0
532 -522 531 0
-533 -521 0
-533 -532 0
533 521 532 0
-534 533 -518 0
-534 -533 518 0
534 533 518 0
534 -533 -518 0
-535 15 0
-535 439 0
535 -15 -439 0
-536 -535 -534 0
-536 535 534 0
536 -535 534 0
536 535 -534 0
-537 531 -522 0
-537 -531 522 0
537 531 522 0
537 -531 -522 0
-538 15 0
-538 444 0
538 -15 -444 0
-539 537 0
-539 538 0
539 -537 -538 0
-540 -538 -537 0
-540 538 537 0
540 -538 537 0
540 538 -537 0
-541 -529 -526 0
-541 529 526 0
541 -529 526 0
541 529 -526 0
-542 15 0
-542 449 0
542 -15 -449 0
-543 541 0
-543 542 0
543 -541 -542 0
-544 540 0
-544 543 0
544 -540 -543 0
-545 -539 0
-545 -544 0
545 539 544 0
-546 545 -536 0
-546 -545 536 0
546 545 536 0
546 -545 -536 0
-547 14 0
-547 444 0
547 -14 -444 0
-548 -547 -546 0
-548 547 546 0
548 -547 546 0
548 547 -546 0
-549 -543 -540 0
-549 543 540 0
549 -543 540 0
549 543 -540 0
-550 14 0
-550 449 0
550 -14 -449 0
-551 549 0
-551 550 0
551 -549 -550 0
-552 -551 -548 0
-552 551 548 0
552 -551 548 0
552 551 -548 0
-553 13 0
-553 449 0
553 -13 -449 0
-554 -553 -552 0
-554 553 552 0
554 -553 552 0
554 553 -552 0
555 554 289 0
555 -554 -289 0
-556 -259 -258 0
-556 259 258 0
556 -259 258 0
556 259 -258 0
-557 -550 -549 0
-557 550 549 0
557 -550 549 0
557 550 -549 0
558 557 556 0
558 -557 -556 0
559 -555 -558 0
-560 -218 -217 0
-560 218 217 0
560 -218 217 0
560 218 -217 0
-561 -542 -541 0
-561 542 541 0
561 -542 541 0
561 542 -541 0
562 561 560 0
562 -561 -560 0
563 -559 -562 0
-564 -177 -176 0
-564 177 176 0
564 -177 176 0
564 177 -176 0
-565 -528 -527 0
-565 528 527 0
565 -528 527 0
565 528 -527 0
566 565 564 0
566 -565 -564 0
567 -563 -566 0
-568 -136 -135 0
-568 136 135 0
568 -136 135 0
568 136 -135 0
-569 -508 -507 0
-569 508 507 0
569 -508 507 0
569 508 -507 0
570 569 568 0
570 -569 -568 0
571 -567 -570 0
-572 -95 -94 0
-572 95 94 0
572 -95 94 0
572 95 -94 0
-573 -482 -481 0
-573 482 481 0
573 -482 481 0
573 482 -481 0
574 573 572 0
574 -573 -572 0
575 -571 -574 0
-576 -54 -53 0
-576 54 53 0
576 -54 53 0
576 54 -53 0
-577 -450 -448 0
-577 450 448 0
577 -450 448 0
577 450 -448 0
578 577 576 0
578 -577 -576 0
579 -575 -578 0
-580 24 0
-580 25 0
580 -24 -25 0
-581 20 0
-581 449 0
581 -20 -449 0
582 581 580 0
582 -581 -580 0
583 -579 -582 0
584 -17 -18 0
-585 -16 0
-585 -584 0
-586 -15 0
-586 585 0
-587 -14 0
-587 586 0
588 -13 587 0
589 -5 -6 0
-590 -4 0
-590 -589 0
-591 -3 0
-591 590 0
-592 -2 0
-592 591 0
593 -1 592 0
594 -11 -12 0
-595 -10 0
-595 -594 0
-596 -9 0
-596 595 0
-597 -8 0
-597 596 0
598 -7 597 0
-599 -593 0
-599 -598 0
-600 -588 0
-600 599 0
-601 -583 0
-601 600 0
601 0
