p cnf 1275 3935
61 46 1 0
61 -46 -1 0
62 47 32 0
62 -47 -32 0
63 -61 -62 0
64 48 33 0
64 -48 -33 0
65 -63 -64 0
66 49 34 0
66 -49 -34 0
67 -65 -66 0
68 50 35 0
68 -50 -35 0
69 -67 -68 0
70 51 36 0
70 -51 -36 0
71 -69 -70 0
72 52 37 0
72 -52 -37 0
73 -71 -72 0
74 53 38 0
74 -53 -38 0
75 -73 -74 0
76 54 39 0
76 -54 -39 0
77 -75 -76 0
78 55 40 0
78 -55 -40 0
79 -77 -78 0
80 56 41 0
80 -56 -41 0
81 -79 -80 0
82 57 42 0
82 -57 -42 0
83 -81 -82 0
84 58 43 0
84 -58 -43 0
85 -83 -84 0
86 59 44 0
86 -59 -44 0
87 -85 -86 0
88 60 45 0
88 -60 -45 0
89 -87 -88 0
-90 2 0
-90 3 0
90 -2 -3 0
-91 4 0
-91 5 0
91 -4 -5 0
-92 -91 -90 0
-92 91 90 0
92 -91 90 0
92 91 -90 0
-93 3 0
-93 4 0
93 -3 -4 0
-94 5 0
-94 6 0
94 -5 -6 0
-95 93 0
-95 94 0
95 -93 -94 0
-96 -94 -93 0
-96 94 93 0
96 -94 93 0
96 94 -93 0
-97 3 0
-97 6 0
97 -3 -6 0
-98 5 0
-98 7 0
98 -5 -7 0
-99 97 0
-99 98 0
99 -97 -98 0
-100 -98 -97 0
-100 98 97 0
100 -98 97 0
100 98 -97 0
-101 3 0
-101 7 0
101 -3 -7 0
-102 5 0
-102 8 0
102 -5 -8 0
-103 101 0
-103 102 0
103 -101 -102 0
-104 -102 -101 0
-104 102 101 0
104 -102 101 0
104 102 -101 0
-105 3 0
-105 8 0
105 -3 -8 0
-106 5 0
-106 9 0
106 -5 -9 0
-107 105 0
-107 106 0
107 -105 -106 0
-108 -106 -105 0
-108 106 105 0
108 -106 105 0
108 106 -105 0
-109 3 0
-109 9 0
109 -3 -9 0
-110 5 0
-110 10 0
110 -5 -10 0
-111 109 0
-111 110 0
111 -109 -110 0
-112 -110 -109 0
-112 110 109 0
112 -110 109 0
112 110 -109 0
-113 3 0
-113 10 0
113 -3 -10 0
-114 5 0
-114 11 0
114 -5 -11 0
-115 113 0
-115 114 0
115 -113 -114 0
-116 -114 -113 0
-116 114 113 0
116 -114 113 0
116 114 -113 0
-117 3 0
-117 11 0
117 -3 -11 0
-118 5 0
-118 12 0
118 -5 -12 0
-119 117 0
-119 118 0
119 -117 -118 0
-120 -118 -117 0
-120 118 117 0
120 -118 117 0
120 118 -117 0
-121 3 0
-121 12 0
121 -3 -12 0
-122 5 0
-122 13 0
122 -5 -13 0
-123 121 0
-123 122 0
123 -121 -122 0
-124 -122 -121 0
-124 122 121 0
124 -122 121 0
124 122 -121 0
-125 3 0
-125 13 0
125 -3 -13 0
-126 5 0
-126 14 0
126 -5 -14 0
-127 125 0
-127 126 0
127 -125 -126 0
-128 -126 -125 0
-128 126 125 0
128 -126 125 0
128 126 -125 0
-129 3 0
-129 14 0
129 -3 -14 0
-130 5 0
-130 15 0
130 -5 -15 0
-131 129 0
-131 130 0
131 -129 -130 0
-132 -130 -129 0
-132 130 129 0
132 -130 129 0
132 130 -129 0
-133 3 0
-133 15 0
133 -3 -15 0
-134 5 0
-134 16 0
134 -5 -16 0
-135 133 0
-135 134 0
135 -133 -134 0
-136 -134 -133 0
-136 134 133 0
136 -134 133 0
136 134 -133 0
-137 3 0
-137 16 0
137 -3 -16 0
-138 5 0
-138 17 0
138 -5 -17 0
-139 137 0
-139 138 0
139 -137 -138 0
-140 -138 -137 0
-140 138 137 0
140 -138 137 0
140 138 -137 0
-141 3 0
-141 17 0
141 -3 -17 0
-142 5 0
-142 18 0
142 -5 -18 0
-143 141 0
-143 142 0
143 -141 -142 0
-144 140 0
-144 143 0
144 -140 -143 0
-145 -139 0
-145 -144 0
145 139 144 0
-146 136 0
-146 -145 0
146 -136 145 0
-147 -135 0
-147 -146 0
147 135 146 0
-148 132 0
-148 -147 0
148 -132 147 0
-149 -131 0
-149 -148 0
149 131 148 0
-150 128 0
-150 -149 0
150 -128 149 0
-151 -127 0
-151 -150 0
151 127 150 0
-152 124 0
-152 -151 0
152 -124 151 0
-153 -123 0
-153 -152 0
153 123 152 0
-154 120 0
-154 -153 0
154 -120 153 0
-155 -119 0
-155 -154 0
155 119 154 0
-156 116 0
-156 -155 0
156 -116 155 0
-157 -115 0
-157 -156 0
157 115 156 0
-158 112 0
-158 -157 0
158 -112 157 0
-159 -111 0
-159 -158 0
159 111 158 0
-160 108 0
-160 -159 0
160 -108 159 0
-161 -107 0
-161 -160 0
161 107 160 0
-162 104 0
-162 -161 0
162 -104 161 0
-163 -103 0
-163 -162 0
163 103 162 0
-164 100 0
-164 -163 0
164 -100 163 0
-165 -99 0
-165 -164 0
165 99 164 0
-166 96 0
-166 -165 0
166 -96 165 0
-167 -95 0
-167 -166 0
167 95 166 0
-168 167 -92 0
-168 -167 92 0
168 167 92 0
168 -167 -92 0
-169 6 0
-169 19 0
169 -6 -19 0
-170 -169 -168 0
-170 169 168 0
170 -169 168 0
170 169 -168 0
-171 165 -96 0
-171 -165 96 0
171 165 96 0
171 -165 -96 0
-172 7 0
-172 19 0
172 -7 -19 0
-173 171 0
-173 172 0
173 -171 -172 0
-174 -172 -171 0
-174 172 171 0
174 -172 171 0
174 172 -171 0
-175 163 -100 0
-175 -163 100 0
175 163 100 0
175 -163 -100 0
-176 8 0
-176 19 0
176 -8 -19 0
-177 175 0
-177 176 0
177 -175 -176 0
-178 -176 -175 0
-178 176 175 0
178 -176 175 0
178 176 -175 0
-179 161 -104 0
-179 -161 104 0
179 161 104 0
179 -161 -104 0
-180 9 0
-180 19 0
180 -9 -19 0
-181 179 0
-181 180 0
181 -179 -180 0
-182 -180 -179 0
-182 180 179 0
182 -180 179 0
182 180 -179 0
-183 159 -108 0
-183 -159 108 0
183 159 108 0
183 -159 -108 0
-184 10 0
-184 19 0
184 -10 -19 0
-185 183 0
-185 184 0
185 -183 -184 0
-186 -184 -183 0
-186 184 183 0
186 -184 183 0
186 184 -183 0
-187 157 -112 0
-187 -157 112 0
187 157 112 0
187 -157 -112 0
-188 11 0
-188 19 0
188 -11 -19 0
-189 187 0
-189 188 0
189 -187 -188 0
-190 -188 -187 0
-190 188 187 0
190 -188 187 0
190 188 -187 0
-191 155 -116 0
-191 -155 116 0
191 155 116 0
191 -155 -116 0
-192 12 0
-192 19 0
192 -12 -19 0
-193 191 0
-193 192 0
193 -191 -192 0
-194 -192 -191 0
-194 192 191 0
194 -192 191 0
194 192 -191 0
-195 153 -120 0
-195 -153 120 0
195 153 120 0
195 -153 -120 0
-196 13 0
-196 19 0
196 -13 -19 0
-197 195 0
-197 196 0
197 -195 -196 0
-198 -196 -195 0
-198 196 195 0
198 -196 195 0
198 196 -195 0
-199 151 -124 0
-199 -151 124 0
199 151 124 0
199 -151 -124 0
-200 14 0
-200 19 0
200 -14 -19 0
-201 199 0
-201 200 0
201 -199 -200 0
-202 -200 -199 0
-202 200 199 0
202 -200 199 0
202 200 -199 0
-203 149 -128 0
-203 -149 128 0
203 149 128 0
203 -149 -128 0
-204 15 0
-204 19 0
204 -15 -19 0
-205 203 0
-205 204 0
205 -203 -204 0
-206 -204 -203 0
-206 204 203 0
206 -204 203 0
206 204 -203 0
-207 147 -132 0
-207 -147 132 0
207 147 132 0
207 -147 -132 0
-208 16 0
-208 19 0
208 -16 -19 0
-209 207 0
-209 208 0
209 -207 -208 0
-210 -208 -207 0
-210 208 207 0
210 -208 207 0
210 208 -207 0
-211 145 -136 0
-211 -145 136 0
211 145 136 0
211 -145 -136 0
-212 17 0
-212 19 0
212 -17 -19 0
-213 211 0
-213 212 0
213 -211 -212 0
-214 -212 -211 0
-214 212 211 0
214 -212 211 0
214 212 -211 0
-215 -143 -140 0
-215 143 140 0
215 -143 140 0
215 143 -140 0
-216 18 0
-216 19 0
216 -18 -19 0
-217 215 0
-217 216 0
217 -215 -216 0
-218 214 0
-218 217 0
218 -214 -217 0
-219 -213 0
-219 -218 0
219 213 218 0
-220 210 0
-220 -219 0
220 -210 219 0
-221 -209 0
-221 -220 0
221 209 220 0
-222 206 0
-222 -221 0
222 -206 221 0
-223 -205 0
-223 -222 0
223 205 222 0
-224 202 0
-224 -223 0
224 -202 223 0
-225 -201 0
-225 -224 0
225 201 224 0
-226 198 0
-226 -225 0
226 -198 225 0
-227 -197 0
-227 -226 0
227 197 226 0
-228 194 0
-228 -227 0
228 -194 227 0
-229 -193 0
-229 -228 0
229 193 228 0
-230 190 0
-230 -229 0
230 -190 229 0
-231 -189 0
-231 -230 0
231 189 230 0
-232 186 0
-232 -231 0
232 -186 231 0
-233 -185 0
-233 -232 0
233 185 232 0
-234 182 0
-234 -233 0
234 -182 233 0
-235 -181 0
-235 -234 0
235 181 234 0
-236 178 0
-236 -235 0
236 -178 235 0
-237 -177 0
-237 -236 0
237 177 236 0
-238 174 0
-238 -237 0
238 -174 237 0
-239 -173 0
-239 -238 0
239 173 238 0
-240 239 -170 0
-240 -239 170 0
240 239 170 0
240 -239 -170 0
-241 7 0
-241 20 0
241 -7 -20 0
-242 -241 -240 0
-242 241 240 0
242 -241 240 0
242 241 -240 0
-243 237 -174 0
-243 -237 174 0
243 237 174 0
243 -237 -174 0
-244 8 0
-244 20 0
244 -8 -20 0
-245 243 0
-245 244 0
245 -243 -244 0
-246 -244 -243 0
-246 244 243 0
246 -244 243 0
246 244 -243 0
-247 235 -178 0
-247 -235 178 0
247 235 178 0
247 -235 -178 0
-248 9 0
-248 20 0
248 -9 -20 0
-249 247 0
-249 248 0
249 -247 -248 0
-250 -248 -247 0
-250 248 247 0
250 -248 247 0
250 248 -247 0
-251 233 -182 0
-251 -233 182 0
251 233 182 0
251 -233 -182 0
-252 10 0
-252 20 0
252 -10 -20 0
-253 251 0
-253 252 0
253 -251 -252 0
-254 -252 -251 0
-254 252 251 0
254 -252 251 0
254 252 -251 0
-255 231 -186 0
-255 -231 186 0
255 231 186 0
255 -231 -186 0
-256 11 0
-256 20 0
256 -11 -20 0
-257 255 0
-257 256 0
257 -255 -256 0
-258 -256 -255 0
-258 256 255 0
258 -256 255 0
258 256 -255 0
-259 229 -190 0
-259 -229 190 0
259 229 190 0
259 -229 -190 0
-260 12 0
-260 20 0
260 -12 -20 0
-261 259 0
-261 260 0
261 -259 -260 0
-262 -260 -259 0
-262 260 259 0
262 -260 259 0
262 260 -259 0
-263 227 -194 0
-263 -227 194 0
263 227 194 0
263 -227 -194 0
-264 13 0
-264 20 0
264 -13 -20 0
-265 263 0
-265 264 0
265 -263 -264 0
-266 -264 -263 0
-266 264 263 0
266 -264 263 0
266 264 -263 0
-267 225 -198 0
-267 -225 198 0
267 225 198 0
267 -225 -198 0
-268 14 0
-268 20 0
268 -14 -20 0
-269 267 0
-269 268 0
269 -267 -268 0
-270 -268 -267 0
-270 268 267 0
270 -268 267 0
270 268 -267 0
-271 223 -202 0
-271 -223 202 0
271 223 202 0
271 -223 -202 0
-272 15 0
-272 20 0
272 -15 -20 0
-273 271 0
-273 272 0
273 -271 -272 0
-274 -272 -271 0
-274 272 271 0
274 -272 271 0
274 272 -271 0
-275 221 -206 0
-275 -221 206 0
275 221 206 0
275 -221 -206 0
-276 16 0
-276 20 0
276 -16 -20 0
-277 275 0
-277 276 0
277 -275 -276 0
-278 -276 -275 0
-278 276 275 0
278 -276 275 0
278 276 -275 0
-279 219 -210 0
-279 -219 210 0
279 219 210 0
279 -219 -210 0
-280 17 0
-280 20 0
280 -17 -20 0
-281 279 0
-281 280 0
281 -279 -280 0
-282 -280 -279 0
-282 280 279 0
282 -280 279 0
282 280 -279 0
-283 -217 -214 0
-283 217 214 0
283 -217 214 0
283 217 -214 0
-284 18 0
-284 20 0
284 -18 -20 0
-285 283 0
-285 284 0
285 -283 -284 0
-286 282 0
-286 285 0
286 -282 -285 0
-287 -281 0
-287 -286 0
287 281 286 0
-288 278 0
-288 -287 0
288 -278 287 0
-289 -277 0
-289 -288 0
289 277 288 0
-290 274 0
-290 -289 0
290 -274 289 0
-291 -273 0
-291 -290 0
291 273 290 0
-292 270 0
-292 -291 0
292 -270 291 0
-293 -269 0
-293 -292 0
293 269 292 0
-294 266 0
-294 -293 0
294 -266 293 0
-295 -265 0
-295 -294 0
295 265 294 0
-296 262 0
-296 -295 0
296 -262 295 0
-297 -261 0
-297 -296 0
297 261 296 0
-298 258 0
-298 -297 0
298 -258 297 0
-299 -257 0
-299 -298 0
299 257 298 0
-300 254 0
-300 -299 0
300 -254 299 0
-301 -253 0
-301 -300 0
301 253 300 0
-302 250 0
-302 -301 0
302 -250 301 0
-303 -249 0
-303 -302 0
303 249 302 0
-304 246 0
-304 -303 0
304 -246 303 0
-305 -245 0
-305 -304 0
305 245 304 0
-306 305 -242 0
-306 -305 242 0
306 305 242 0
306 -305 -242 0
-307 8 0
-307 21 0
307 -8 -21 0
-308 -307 -306 0
-308 307 306 0
308 -307 306 0
308 307 -306 0
-309 303 -246 0
-309 -303 246 0
309 303 246 0
309 -303 -246 0
-310 9 0
-310 21 0
310 -9 -21 0
-311 309 0
-311 310 0
311 -309 -310 0
-312 -310 -309 0
-312 310 309 0
312 -310 309 0
312 310 -309 0
-313 301 -250 0
-313 -301 250 0
313 301 250 0
313 -301 -250 0
-314 10 0
-314 21 0
314 -10 -21 0
-315 313 0
-315 314 0
315 -313 -314 0
-316 -314 -313 0
-316 314 313 0
316 -314 313 0
316 314 -313 0
-317 299 -254 0
-317 -299 254 0
317 299 254 0
317 -299 -254 0
-318 11 0
-318 21 0
318 -11 -21 0
-319 317 0
-319 318 0
319 -317 -318 0
-320 -318 -317 0
-320 318 317 0
320 -318 317 0
320 318 -317 0
-321 297 -258 0
-321 -297 258 0
321 297 258 0
321 -297 -258 0
-322 12 0
-322 21 0
322 -12 -21 0
-323 321 0
-323 322 0
323 -321 -322 0
-324 -322 -321 0
-324 322 321 0
324 -322 321 0
324 322 -321 0
-325 295 -262 0
-325 -295 262 0
325 295 262 0
325 -295 -262 0
-326 13 0
-326 21 0
326 -13 -21 0
-327 325 0
-327 326 0
327 -325 -326 0
-328 -326 -325 0
-328 326 325 0
328 -326 325 0
328 326 -325 0
-329 293 -266 0
-329 -293 266 0
329 293 266 0
329 -293 -266 0
-330 14 0
-330 21 0
330 -14 -21 0
-331 329 0
-331 330 0
331 -329 -330 0
-332 -330 -329 0
-332 330 329 0
332 -330 329 0
332 330 -329 0
-333 291 -270 0
-333 -291 270 0
333 291 270 0
333 -291 -270 0
-334 15 0
-334 21 0
334 -15 -21 0
-335 333 0
-335 334 0
335 -333 -334 0
-336 -334 -333 0
-336 334 333 0
336 -334 333 0
336 334 -333 0
-337 289 -274 0
-337 -289 274 0
337 289 274 0
337 -289 -274 0
-338 16 0
-338 21 0
338 -16 -21 0
-339 337 0
-339 338 0
339 -337 -338 0
-340 -338 -337 0
-340 338 337 0
340 -338 337 0
340 338 -337 0
-341 287 -278 0
-341 -287 278 0
341 287 278 0
341 -287 -278 0
-342 17 0
-342 21 0
342 -17 -21 0
-343 341 0
-343 342 0
343 -341 -342 0
-344 -342 -341 0
-344 342 341 0
344 -342 341 0
344 342 -341 0
-345 -285 -282 0
-345 285 282 0
345 -285 282 0
345 285 -282 0
-346 18 0
-346 21 0
346 -18 -21 0
-347 345 0
-347 346 0
347 -345 -346 0
-348 344 0
-348 347 0
348 -344 -347 0
-349 -343 0
-349 -348 0
349 343 348 0
-350 340 0
-350 -349 0
350 -340 349 0
-351 -339 0
-351 -350 0
351 339 350 0
-352 336 0
-352 -351 0
352 -336 351 0
-353 -335 0
-353 -352 0
353 335 352 0
-354 332 0
-354 -353 0
354 -332 353 0
-355 -331 0
-355 -354 0
355 331 354 0
-356 328 0
-356 -355 0
356 -328 355 0
-357 -327 0
-357 -356 0
357 327 356 0
-358 324 0
-358 -357 0
358 -324 357 0
-359 -323 0
-359 -358 0
359 323 358 0
-360 320 0
-360 -359 0
360 -320 359 0
-361 -319 0
-361 -360 0
361 319 360 0
-362 316 0
-362 -361 0
362 -316 361 0
-363 -315 0
-363 -362 0
363 315 362 0
-364 312 0
-364 -363 0
364 -312 363 0
-365 -311 0
-365 -364 0
365 311 364 0
-366 365 -308 0
-366 -365 308 0
366 365 308 0
366 -365 -308 0
-367 9 0
-367 22 0
367 -9 -22 0
-368 -367 -366 0
-368 367 366 0
368 -367 366 0
368 367 -366 0
-369 363 -312 0
-369 -363 312 0
369 363 312 0
369 -363 -312 0
-370 10 0
-370 22 0
370 -10 -22 0
-371 369 0
-371 370 0
371 -369 -370 0
-372 -370 -369 0
-372 370 369 0
372 -370 369 0
372 370 -369 0
-373 361 -316 0
-373 -361 316 0
373 361 316 0
373 -361 -316 0
-374 11 0
-374 22 0
374 -11 -22 0
-375 373 0
-375 374 0
375 -373 -374 0
-376 -374 -373 0
-376 374 373 0
376 -374 373 0
376 374 -373 0
-377 359 -320 0
-377 -359 320 0
377 359 320 0
377 -359 -320 0
-378 12 0
-378 22 0
378 -12 -22 0
-379 377 0
-379 378 0
379 -377 -378 0
-380 -378 -377 0
-380 378 377 0
380 -378 377 0
380 378 -377 0
-381 357 -324 0
-381 -357 324 0
381 357 324 0
381 -357 -324 0
-382 13 0
-382 22 0
382 -13 -22 0
-383 381 0
-383 382 0
383 -381 -382 0
-384 -382 -381 0
-384 382 381 0
384 -382 381 0
384 382 -381 0
-385 355 -328 0
-385 -355 328 0
385 355 328 0
385 -355 -328 0
-386 14 0
-386 22 0
386 -14 -22 0
-387 385 0
-387 386 0
387 -385 -386 0
-388 -386 -385 0
-388 386 385 0
388 -386 385 0
388 386 -385 0
-389 353 -332 0
-389 -353 332 0
389 353 332 0
389 -353 -332 0
-390 15 0
-390 22 0
390 -15 -22 0
-391 389 0
-391 390 0
391 -389 -390 0
-392 -390 -389 0
-392 390 389 0
392 -390 389 0
392 390 -389 0
-393 351 -336 0
-393 -351 336 0
393 351 336 0
393 -351 -336 0
-394 16 0
-394 22 0
394 -16 -22 0
-395 393 0
-395 394 0
395 -393 -394 0
-396 -394 -393 0
-396 394 393 0
396 -394 393 0
396 394 -393 0
-397 349 -340 0
-397 -349 340 0
397 349 340 0
397 -349 -340 0
-398 17 0
-398 22 0
398 -17 -22 0
-399 397 0
-399 398 0
399 -397 -398 0
-400 -398 -397 0
-400 398 397 0
400 -398 397 0
400 398 -397 0
-401 -347 -344 0
-401 347 344 0
401 -347 344 0
401 347 -344 0
-402 18 0
-402 22 0
402 -18 -22 0
-403 401 0
-403 402 0
403 -401 -402 0
-404 400 0
-404 403 0
404 -400 -403 0
-405 -399 0
-405 -404 0
405 399 404 0
-406 396 0
-406 -405 0
406 -396 405 0
-407 -395 0
-407 -406 0
407 395 406 0
-408 392 0
-408 -407 0
408 -392 407 0
-409 -391 0
-409 -408 0
409 391 408 0
-410 388 0
-410 -409 0
410 -388 409 0
-411 -387 0
-411 -410 0
411 387 410 0
-412 384 0
-412 -411 0
412 -384 411 0
-413 -383 0
-413 -412 0
413 383 412 0
-414 380 0
-414 -413 0
414 -380 413 0
-415 -379 0
-415 -414 0
415 379 414 0
-416 376 0
-416 -415 0
416 -376 415 0
-417 -375 0
-417 -416 0
417 375 416 0
-418 372 0
-418 -417 0
418 -372 417 0
-419 -371 0
-419 -418 0
419 371 418 0
-420 419 -368 0
-420 -419 368 0
420 419 368 0
420 -419 -368 0
-421 10 0
-421 23 0
421 -10 -23 0
-422 -421 -420 0
-422 421 420 0
422 -421 420 0
422 421 -420 0
-423 417 -372 0
-423 -417 372 0
423 417 372 0
423 -417 -372 0
-424 11 0
-424 23 0
424 -11 -23 0
-425 423 0
-425 424 0
425 -423 -424 0
-426 -424 -423 0
-426 424 423 0
426 -424 423 0
426 424 -423 0
-427 415 -376 0
-427 -415 376 0
427 415 376 0
427 -415 -376 0
-428 12 0
-428 23 0
428 -12 -23 0
-429 427 0
-429 428 0
429 -427 -428 0
-430 -428 -427 0
-430 428 427 0
430 -428 427 0
430 428 -427 0
-431 413 -380 0
-431 -413 380 0
431 413 380 0
431 -413 -380 0
-432 13 0
-432 23 0
432 -13 -23 0
-433 431 0
-433 432 0
433 -431 -432 0
-434 -432 -431 0
-434 432 431 0
434 -432 431 0
434 432 -431 0
-435 411 -384 0
-435 -411 384 0
435 411 384 0
435 -411 -384 0
-436 14 0
-436 23 0
436 -14 -23 0
-437 435 0
-437 436 0
437 -435 -436 0
-438 -436 -435 0
-438 436 435 0
438 -436 435 0
438 436 -435 0
-439 409 -388 0
-439 -409 388 0
439 409 388 0
439 -409 -388 0
-440 15 0
-440 23 0
440 -15 -23 0
-441 439 0
-441 440 0
441 -439 -440 0
-442 -440 -439 0
-442 440 439 0
442 -440 439 0
442 440 -439 0
-443 407 -392 0
-443 -407 392 0
443 407 392 0
443 -407 -392 0
-444 16 0
-444 23 0
444 -16 -23 0
-445 443 0
-445 444 0
445 -443 -444 0
-446 -444 -443 0
-446 444 443 0
446 -444 443 0
446 444 -443 0
-447 405 -396 0
-447 -405 396 0
447 405 396 0
447 -405 -396 0
-448 17 0
-448 23 0
448 -17 -23 0
-449 447 0
-449 448 0
449 -447 -448 0
-450 -448 -447 0
-450 448 447 0
450 -448 447 0
450 448 -447 0
-451 -403 -400 0
-451 403 400 0
451 -403 400 0
451 403 -400 0
-452 18 0
-452 23 0
452 -18 -23 0
-453 451 0
-453 452 0
453 -451 -452 0
-454 450 0
-454 453 0
454 -450 -453 0
-455 -449 0
-455 -454 0
455 449 454 0
-456 446 0
-456 -455 0
456 -446 455 0
-457 -445 0
-457 -456 0
457 445 456 0
-458 442 0
-458 -457 0
458 -442 457 0
-459 -441 0
-459 -458 0
459 441 458 0
-460 438 0
-460 -459 0
460 -438 459 0
-461 -437 0
-461 -460 0
461 437 460 0
-462 434 0
-462 -461 0
462 -434 461 0
-463 -433 0
-463 -462 0
463 433 462 0
-464 430 0
-464 -463 0
464 -430 463 0
-465 -429 0
-465 -464 0
465 429 464 0
-466 426 0
-466 -465 0
466 -426 465 0
-467 -425 0
-467 -466 0
467 425 466 0
-468 467 -422 0
-468 -467 422 0
468 467 422 0
468 -467 -422 0
-469 11 0
-469 24 0
469 -11 -24 0
-470 -469 -468 0
-470 469 468 0
470 -469 468 0
470 469 -468 0
-471 465 -426 0
-471 -465 426 0
471 465 426 0
471 -465 -426 0
-472 12 0
-472 24 0
472 -12 -24 0
-473 471 0
-473 472 0
473 -471 -472 0
-474 -472 -471 0
-474 472 471 0
474 -472 471 0
474 472 -471 0
-475 463 -430 0
-475 -463 430 0
475 463 430 0
475 -463 -430 0
-476 13 0
-476 24 0
476 -13 -24 0
-477 475 0
-477 476 0
477 -475 -476 0
-478 -476 -475 0
-478 476 475 0
478 -476 475 0
478 476 -475 0
-479 461 -434 0
-479 -461 434 0
479 461 434 0
479 -461 -434 0
-480 14 0
-480 24 0
480 -14 -24 0
-481 479 0
-481 480 0
481 -479 -480 0
-482 -480 -479 0
-482 480 479 0
482 -480 479 0
482 480 -479 0
-483 459 -438 0
-483 -459 438 0
483 459 438 0
483 -459 -438 0
-484 15 0
-484 24 0
484 -15 -24 0
-485 483 0
-485 484 0
485 -483 -484 0
-486 -484 -483 0
-486 484 483 0
486 -484 483 0
486 484 -483 0
-487 457 -442 0
-487 -457 442 0
487 457 442 0
487 -457 -442 0
-488 16 0
-488 24 0
488 -16 -24 0
-489 487 0
-489 488 0
489 -487 -488 0
-490 -488 -487 0
-490 488 487 0
490 -488 487 0
490 488 -487 0
-491 455 -446 0
-491 -455 446 0
491 455 446 0
491 -455 -446 0
-492 17 0
-492 24 0
492 -17 -24 0
-493 491 0
-493 492 0
493 -491 -492 0
-494 -492 -491 0
-494 492 491 0
494 -492 491 0
494 492 -491 0
-495 -453 -450 0
-495 453 450 0
495 -453 450 0
495 453 -450 0
-496 18 0
-496 24 0
496 -18 -24 0
-497 495 0
-497 496 0
497 -495 -496 0
-498 494 0
-498 497 0
498 -494 -497 0
-499 -493 0
-499 -498 0
499 493 498 0
-500 490 0
-500 -499 0
500 -490 499 0
-501 -489 0
-501 -500 0
501 489 500 0
-502 486 0
-502 -501 0
502 -486 501 0
-503 -485 0
-503 -502 0
503 485 502 0
-504 482 0
-504 -503 0
504 -482 503 0
-505 -481 0
-505 -504 0
505 481 504 0
-506 478 0
-506 -505 0
506 -478 505 0
-507 -477 0
-507 -506 0
507 477 506 0
-508 474 0
-508 -507 0
508 -474 507 0
-509 -473 0
-509 -508 0
509 473 508 0
-510 509 -470 0
-510 -509 470 0
510 509 470 0
510 -509 -470 0
-511 12 0
-511 25 0
511 -12 -25 0
-512 -511 -510 0
-512 511 510 0
512 -511 510 0
512 511 -510 0
-513 507 -474 0
-513 -507 474 0
513 507 474 0
513 -507 -474 0
-514 13 0
-514 25 0
514 -13 -25 0
-515 513 0
-515 514 0
515 -513 -514 0
-516 -514 -513 0
-516 514 513 0
516 -514 513 0
516 514 -513 0
-517 505 -478 0
-517 -505 478 0
517 505 478 0
517 -505 -478 0
-518 14 0
-518 25 0
518 -14 -25 0
-519 517 0
-519 518 0
519 -517 -518 0
-520 -518 -517 0
-520 518 517 0
520 -518 517 0
520 518 -517 0
-521 503 -482 0
-521 -503 482 0
521 503 482 0
521 -503 -482 0
-522 15 0
-522 25 0
522 -15 -25 0
-523 521 0
-523 522 0
523 -521 -522 0
-524 -522 -521 0
-524 522 521 0
524 -522 521 0
524 522 -521 0
-525 501 -486 0
-525 -501 486 0
525 501 486 0
525 -501 -486 0
-526 16 0
-526 25 0
526 -16 -25 0
-527 525 0
-527 526 0
527 -525 -526 0
-528 -526 -525 0
-528 526 525 0
528 -526 525 0
528 526 -525 0
-529 499 -490 0
-529 -499 490 0
529 499 490 0
529 -499 -490 0
-530 17 0
-530 25 0
530 -17 -25 0
-531 529 0
-531 530 0
531 -529 -530 0
-532 -530 -529 0
-532 530 529 0
532 -530 529 0
532 530 -529 0
-533 -497 -494 0
-533 497 494 0
533 -497 494 0
533 497 -494 0
-534 18 0
-534 25 0
534 -18 -25 0
-535 533 0
-535 534 0
535 -533 -534 0
-536 532 0
-536 535 0
536 -532 -535 0
-537 -531 0
-537 -536 0
537 531 536 0
-538 528 0
-538 -537 0
538 -528 537 0
-539 -527 0
-539 -538 0
539 527 538 0
-540 524 0
-540 -539 0
540 -524 539 0
-541 -523 0
-541 -540 0
541 523 540 0
-542 520 0
-542 -541 0
542 -520 541 0
-543 -519 0
-543 -542 0
543 519 542 0
-544 516 0
-544 -543 0
544 -516 543 0
-545 -515 0
-545 -544 0
545 515 544 0
-546 545 -512 0
-546 -545 512 0
546 545 512 0
546 -545 -512 0
-547 13 0
-547 26 0
547 -13 -26 0
-548 -547 -546 0
-548 547 546 0
548 -547 546 0
548 547 -546 0
-549 543 -516 0
-549 -543 516 0
549 543 516 0
549 -543 -516 0
-550 14 0
-550 26 0
550 -14 -26 0
-551 549 0
-551 550 0
551 -549 -550 0
-552 -550 -549 0
-552 550 549 0
552 -550 549 0
552 550 -549 0
-553 541 -520 0
-553 -541 520 0
553 541 520 0
553 -541 -520 0
-554 15 0
-554 26 0
554 -15 -26 0
-555 553 0
-555 554 0
555 -553 -554 0
-556 -554 -553 0
-556 554 553 0
556 -554 553 0
556 554 -553 0
-557 539 -524 0
-557 -539 524 0
557 539 524 0
557 -539 -524 0
-558 16 0
-558 26 0
558 -16 -26 0
-559 557 0
-559 558 0
559 -557 -558 0
-560 -558 -557 0
-560 558 557 0
560 -558 557 0
560 558 -557 0
-561 537 -528 0
-561 -537 528 0
561 537 528 0
561 -537 -528 0
-562 17 0
-562 26 0
562 -17 -26 0
-563 561 0
-563 562 0
563 -561 -562 0
-564 -562 -561 0
-564 562 561 0
564 -562 561 0
564 562 -561 0
-565 -535 -532 0
-565 535 532 0
565 -535 532 0
565 535 -532 0
-566 18 0
-566 26 0
566 -18 -26 0
-567 565 0
-567 566 0
567 -565 -566 0
-568 564 0
-568 567 0
568 -564 -567 0
-569 -563 0
-569 -568 0
569 563 568 0
-570 560 0
-570 -569 0
570 -560 569 0
-571 -559 0
-571 -570 0
571 559 570 0
-572 556 0
-572 -571 0
572 -556 571 0
-573 -555 0
-573 -572 0
573 555 572 0
-574 552 0
-574 -573 0
574 -552 573 0
-575 -551 0
-575 -574 0
575 551 574 0
-576 575 -548 0
-576 -575 548 0
576 575 548 0
576 -575 -548 0
-577 14 0
-577 27 0
577 -14 -27 0
-578 -577 -576 0
-578 577 576 0
578 -577 576 0
578 577 -576 0
-579 573 -552 0
-579 -573 552 0
579 573 552 0
579 -573 -552 0
-580 15 0
-580 27 0
580 -15 -27 0
-581 579 0
-581 580 0
581 -579 -580 0
-582 -580 -579 0
-582 580 579 0
582 -580 579 0
582 580 -579 0
-583 571 -556 0
-583 -571 556 0
583 571 556 0
583 -571 -556 0
-584 16 0
-584 27 0
584 -16 -27 0
-585 583 0
-585 584 0
585 -583 -584 0
-586 -584 -583 0
-586 584 583 0
586 -584 583 0
586 584 -583 0
-587 569 -560 0
-587 -569 560 0
587 569 560 0
587 -569 -560 0
-588 17 0
-588 27 0
588 -17 -27 0
-589 587 0
-589 588 0
589 -587 -588 0
-590 -588 -587 0
-590 588 587 0
590 -588 587 0
590 588 -587 0
-591 -567 -564 0
-591 567 564 0
591 -567 564 0
591 567 -564 0
-592 18 0
-592 27 0
592 -18 -27 0
-593 591 0
-593 592 0
593 -591 -592 0
-594 590 0
-594 593 0
594 -590 -593 0
-595 -589 0
-595 -594 0
595 589 594 0
-596 586 0
-596 -595 0
596 -586 595 0
-597 -585 0
-597 -596 0
597 585 596 0
-598 582 0
-598 -597 0
598 -582 597 0
-599 -581 0
-599 -598 0
599 581 598 0
-600 599 -578 0
-600 -599 578 0
600 599 578 0
600 -599 -578 0
-601 15 0
-601 28 0
601 -15 -28 0
-602 -601 -600 0
-602 601 600 0
602 -601 600 0
602 601 -600 0
-603 597 -582 0
-603 -597 582 0
603 597 582 0
603 -597 -582 0
-604 16 0
-604 28 0
604 -16 -28 0
-605 603 0
-605 604 0
605 -603 -604 0
-606 -604 -603 0
-606 604 603 0
606 -604 603 0
606 604 -603 0
-607 595 -586 0
-607 -595 586 0
607 595 586 0
607 -595 -586 0
-608 17 0
-608 28 0
608 -17 -28 0
-609 607 0
-609 608 0
609 -607 -608 0
-610 -608 -607 0
-610 608 607 0
610 -608 607 0
610 608 -607 0
-611 -593 -590 0
-611 593 590 0
611 -593 590 0
611 593 -590 0
-612 18 0
-612 28 0
612 -18 -28 0
-613 611 0
-613 612 0
613 -611 -612 0
-614 610 0
-614 613 0
614 -610 -613 0
-615 -609 0
-615 -614 0
615 609 614 0
-616 606 0
-616 -615 0
616 -606 615 0
-617 -605 0
-617 -616 0
617 605 616 0
-618 617 -602 0
-618 -617 602 0
618 617 602 0
618 -617 -602 0
-619 16 0
-619 29 0
619 -16 -29 0
-620 -619 -618 0
-620 619 618 0
620 -619 618 0
620 619 -618 0
-621 615 -606 0
-621 -615 606 0
621 615 606 0
621 -615 -606 0
-622 17 0
-622 29 0
622 -17 -29 0
-623 621 0
-623 622 0
623 -621 -622 0
-624 -622 -621 0
-624 622 621 0
624 -622 621 0
624 622 -621 0
-625 -613 -610 0
-625 613 610 0
625 -613 610 0
625 613 -610 0
-626 18 0
-626 29 0
626 -18 -29 0
-627 625 0
-627 626 0
627 -625 -626 0
-628 624 0
-628 627 0
628 -624 -627 0
-629 -623 0
-629 -628 0
629 623 628 0
-630 629 -620 0
-630 -629 620 0
630 629 620 0
630 -629 -620 0
-631 17 0
-631 30 0
631 -17 -30 0
-632 -631 -630 0
-632 631 630 0
632 -631 630 0
632 631 -630 0
-633 -627 -624 0
-633 627 624 0
633 -627 624 0
633 627 -624 0
-634 18 0
-634 30 0
634 -18 -30 0
-635 633 0
-635 634 0
635 -633 -634 0
-636 -635 -632 0
-636 635 632 0
636 -635 632 0
636 635 -632 0
-637 18 0
-637 31 0
637 -18 -31 0
-638 -637 -636 0
-638 637 636 0
638 -637 636 0
638 637 -636 0
-639 638 -1 0
-639 -638 1 0
-640 -634 -633 0
-640 634 633 0
640 -634 633 0
640 634 -633 0
-641 640 -32 0
-641 -640 32 0
-642 639 0
-642 641 0
-643 -626 -625 0
-643 626 625 0
643 -626 625 0
643 626 -625 0
-644 643 -33 0
-644 -643 33 0
-645 642 0
-645 644 0
-646 -612 -611 0
-646 612 611 0
646 -612 611 0
646 612 -611 0
-647 646 -34 0
-647 -646 34 0
-648 645 0
-648 647 0
-649 -592 -591 0
-649 592 591 0
649 -592 591 0
649 592 -591 0
-650 649 -35 0
-650 -649 35 0
-651 648 0
-651 650 0
-652 -566 -565 0
-652 566 565 0
652 -566 565 0
652 566 -565 0
-653 652 -36 0
-653 -652 36 0
-654 651 0
-654 653 0
-655 -534 -533 0
-655 534 533 0
655 -534 533 0
655 534 -533 0
-656 655 -37 0
-656 -655 37 0
-657 654 0
-657 656 0
-658 -496 -495 0
-658 496 495 0
658 -496 495 0
658 496 -495 0
-659 658 -38 0
-659 -658 38 0
-660 657 0
-660 659 0
-661 -452 -451 0
-661 452 451 0
661 -452 451 0
661 452 -451 0
-662 661 -39 0
-662 -661 39 0
-663 660 0
-663 662 0
-664 -402 -401 0
-664 402 401 0
664 -402 401 0
664 402 -401 0
-665 664 -40 0
-665 -664 40 0
-666 663 0
-666 665 0
-667 -346 -345 0
-667 346 345 0
667 -346 345 0
667 346 -345 0
-668 667 -41 0
-668 -667 41 0
-669 666 0
-669 668 0
-670 -284 -283 0
-670 284 283 0
670 -284 283 0
670 284 -283 0
-671 670 -42 0
-671 -670 42 0
-672 669 0
-672 671 0
-673 -216 -215 0
-673 216 215 0
673 -216 215 0
673 216 -215 0
-674 673 -43 0
-674 -673 43 0
-675 672 0
-675 674 0
-676 -142 -141 0
-676 142 141 0
676 -142 141 0
676 142 -141 0
-677 676 -44 0
-677 -676 44 0
-678 675 0
-678 677 0
-679 3 0
-679 18 0
679 -3 -18 0
-680 679 -45 0
-680 -679 45 0
-681 678 0
-681 680 0
-682 18 0
-682 31 0
682 -18 -31 0
-683 17 0
-683 30 0
683 -17 -30 0
-684 -683 -682 0
-684 683 682 0
684 -683 682 0
684 683 -682 0
-685 18 0
-685 30 0
685 -18 -30 0
-686 17 0
-686 29 0
686 -17 -29 0
-687 685 0
-687 686 0
687 -685 -686 0
-688 -686 -685 0
-688 686 685 0
688 -686 685 0
688 686 -685 0
-689 18 0
-689 29 0
689 -18 -29 0
-690 17 0
-690 28 0
690 -17 -28 0
-691 689 0
-691 690 0
691 -689 -690 0
-692 -690 -689 0
-692 690 689 0
692 -690 689 0
692 690 -689 0
-693 18 0
-693 28 0
693 -18 -28 0
-694 17 0
-694 27 0
694 -17 -27 0
-695 693 0
-695 694 0
695 -693 -694 0
-696 -694 -693 0
-696 694 693 0
696 -694 693 0
696 694 -693 0
-697 18 0
-697 27 0
697 -18 -27 0
-698 17 0
-698 26 0
698 -17 -26 0
-699 697 0
-699 698 0
699 -697 -698 0
-700 -698 -697 0
-700 698 697 0
700 -698 697 0
700 698 -697 0
-701 18 0
-701 26 0
701 -18 -26 0
-702 17 0
-702 25 0
702 -17 -25 0
-703 701 0
-703 702 0
703 -701 -702 0
-704 -702 -701 0
-704 702 701 0
704 -702 701 0
704 702 -701 0
-705 18 0
-705 25 0
705 -18 -25 0
-706 17 0
-706 24 0
706 -17 -24 0
-707 705 0
-707 706 0
707 -705 -706 0
-708 -706 -705 0
-708 706 705 0
708 -706 705 0
708 706 -705 0
-709 18 0
-709 24 0
709 -18 -24 0
-710 17 0
-710 23 0
710 -17 -23 0
-711 709 0
-711 710 0
711 -709 -710 0
-712 -710 -709 0
-712 710 709 0
712 -710 709 0
712 710 -709 0
-713 18 0
-713 23 0
713 -18 -23 0
-714 17 0
-714 22 0
714 -17 -22 0
-715 713 0
-715 714 0
715 -713 -714 0
-716 -714 -713 0
-716 714 713 0
716 -714 713 0
716 714 -713 0
-717 18 0
-717 22 0
717 -18 -22 0
-718 17 0
-718 21 0
718 -17 -21 0
-719 717 0
-719 718 0
719 -717 -718 0
-720 -718 -717 0
-720 718 717 0
720 -718 717 0
720 718 -717 0
-721 18 0
-721 21 0
721 -18 -21 0
-722 17 0
-722 20 0
722 -17 -20 0
-723 721 0
-723 722 0
723 -721 -722 0
-724 -722 -721 0
-724 722 721 0
724 -722 721 0
724 722 -721 0
-725 18 0
-725 20 0
725 -18 -20 0
-726 17 0
-726 19 0
726 -17 -19 0
-727 725 0
-727 726 0
727 -725 -726 0
-728 -726 -725 0
-728 726 725 0
728 -726 725 0
728 726 -725 0
-729 18 0
-729 19 0
729 -18 -19 0
-730 5 0
-730 17 0
730 -5 -17 0
-731 729 0
-731 730 0
731 -729 -730 0
-732 -730 -729 0
-732 730 729 0
732 -730 729 0
732 730 -729 0
-733 5 0
-733 18 0
733 -5 -18 0
-734 3 0
-734 17 0
734 -3 -17 0
-735 733 0
-735 734 0
735 -733 -734 0
-736 732 0
-736 735 0
736 -732 -735 0
-737 -731 0
-737 -736 0
737 731 736 0
-738 728 0
-738 -737 0
738 -728 737 0
-739 -727 0
-739 -738 0
739 727 738 0
-740 724 0
-740 -739 0
740 -724 739 0
-741 -723 0
-741 -740 0
741 723 740 0
-742 720 0
-742 -741 0
742 -720 741 0
-743 -719 0
-743 -742 0
743 719 742 0
-744 716 0
-744 -743 0
744 -716 743 0
-745 -715 0
-745 -744 0
745 715 744 0
-746 712 0
-746 -745 0
746 -712 745 0
-747 -711 0
-747 -746 0
747 711 746 0
-748 708 0
-748 -747 0
748 -708 747 0
-749 -707 0
-749 -748 0
749 707 748 0
-750 704 0
-750 -749 0
750 -704 749 0
-751 -703 0
-751 -750 0
751 703 750 0
-752 700 0
-752 -751 0
752 -700 751 0
-753 -699 0
-753 -752 0
753 699 752 0
-754 696 0
-754 -753 0
754 -696 753 0
-755 -695 0
-755 -754 0
755 695 754 0
-756 692 0
-756 -755 0
756 -692 755 0
-757 -691 0
-757 -756 0
757 691 756 0
-758 688 0
-758 -757 0
758 -688 757 0
-759 -687 0
-759 -758 0
759 687 758 0
-760 759 -684 0
-760 -759 684 0
760 759 684 0
760 -759 -684 0
-761 16 0
-761 29 0
761 -16 -29 0
-762 -761 -760 0
-762 761 760 0
762 -761 760 0
762 761 -760 0
-763 757 -688 0
-763 -757 688 0
763 757 688 0
763 -757 -688 0
-764 16 0
-764 28 0
764 -16 -28 0
-765 763 0
-765 764 0
765 -763 -764 0
-766 -764 -763 0
-766 764 763 0
766 -764 763 0
766 764 -763 0
-767 755 -692 0
-767 -755 692 0
767 755 692 0
767 -755 -692 0
-768 16 0
-768 27 0
768 -16 -27 0
-769 767 0
-769 768 0
769 -767 -768 0
-770 -768 -767 0
-770 768 767 0
770 -768 767 0
770 768 -767 0
-771 753 -696 0
-771 -753 696 0
771 753 696 0
771 -753 -696 0
-772 16 0
-772 26 0
772 -16 -26 0
-773 771 0
-773 772 0
773 -771 -772 0
-774 -772 -771 0
-774 772 771 0
774 -772 771 0
774 772 -771 0
-775 751 -700 0
-775 -751 700 0
775 751 700 0
775 -751 -700 0
-776 16 0
-776 25 0
776 -16 -25 0
-777 775 0
-777 776 0
777 -775 -776 0
-778 -776 -775 0
-778 776 775 0
778 -776 775 0
778 776 -775 0
-779 749 -704 0
-779 -749 704 0
779 749 704 0
779 -749 -704 0
-780 16 0
-780 24 0
780 -16 -24 0
-781 779 0
-781 780 0
781 -779 -780 0
-782 -780 -779 0
-782 780 779 0
782 -780 779 0
782 780 -779 0
-783 747 -708 0
-783 -747 708 0
783 747 708 0
783 -747 -708 0
-784 16 0
-784 23 0
784 -16 -23 0
-785 783 0
-785 784 0
785 -783 -784 0
-786 -784 -783 0
-786 784 783 0
786 -784 783 0
786 784 -783 0
-787 745 -712 0
-787 -745 712 0
787 745 712 0
787 -745 -712 0
-788 16 0
-788 22 0
788 -16 -22 0
-789 787 0
-789 788 0
789 -787 -788 0
-790 -788 -787 0
-790 788 787 0
790 -788 787 0
790 788 -787 0
-791 743 -716 0
-791 -743 716 0
791 743 716 0
791 -743 -716 0
-792 16 0
-792 21 0
792 -16 -21 0
-793 791 0
-793 792 0
793 -791 -792 0
-794 -792 -791 0
-794 792 791 0
794 -792 791 0
794 792 -791 0
-795 741 -720 0
-795 -741 720 0
795 741 720 0
795 -741 -720 0
-796 16 0
-796 20 0
796 -16 -20 0
-797 795 0
-797 796 0
797 -795 -796 0
-798 -796 -795 0
-798 796 795 0
798 -796 795 0
798 796 -795 0
-799 739 -724 0
-799 -739 724 0
799 739 724 0
799 -739 -724 0
-800 16 0
-800 19 0
800 -16 -19 0
-801 799 0
-801 800 0
801 -799 -800 0
-802 -800 -799 0
-802 800 799 0
802 -800 799 0
802 800 -799 0
-803 737 -728 0
-803 -737 728 0
803 737 728 0
803 -737 -728 0
-804 5 0
-804 16 0
804 -5 -16 0
-805 803 0
-805 804 0
805 -803 -804 0
-806 -804 -803 0
-806 804 803 0
806 -804 803 0
806 804 -803 0
-807 -735 -732 0
-807 735 732 0
807 -735 732 0
807 735 -732 0
-808 3 0
-808 16 0
808 -3 -16 0
-809 807 0
-809 808 0
809 -807 -808 0
-810 806 0
-810 809 0
810 -806 -809 0
-811 -805 0
-811 -810 0
811 805 810 0
-812 802 0
-812 -811 0
812 -802 811 0
-813 -801 0
-813 -812 0
813 801 812 0
-814 798 0
-814 -813 0
814 -798 813 0
-815 -797 0
-815 -814 0
815 797 814 0
-816 794 0
-816 -815 0
816 -794 815 0
-817 -793 0
-817 -816 0
817 793 816 0
-818 790 0
-818 -817 0
818 -790 817 0
-819 -789 0
-819 -818 0
819 789 818 0
-820 786 0
-820 -819 0
820 -786 819 0
-821 -785 0
-821 -820 0
821 785 820 0
-822 782 0
-822 -821 0
822 -782 821 0
-823 -781 0
-823 -822 0
823 781 822 0
-824 778 0
-824 -823 0
824 -778 823 0
-825 -777 0
-825 -824 0
825 777 824 0
-826 774 0
-826 -825 0
826 -774 825 0
-827 -773 0
-827 -826 0
827 773 826 0
-828 770 0
-828 -827 0
828 -770 827 0
-829 -769 0
-829 -828 0
829 769 828 0
-830 766 0
-830 -829 0
830 -766 829 0
-831 -765 0
-831 -830 0
831 765 830 0
-832 831 -762 0
-832 -831 762 0
832 831 762 0
832 -831 -762 0
-833 15 0
-833 28 0
833 -15 -28 0
-834 -833 -832 0
-834 833 832 0
834 -833 832 0
834 833 -832 0
-835 829 -766 0
-835 -829 766 0
835 829 766 0
835 -829 -766 0
-836 15 0
-836 27 0
836 -15 -27 0
-837 835 0
-837 836 0
837 -835 -836 0
-838 -836 -835 0
-838 836 835 0
838 -836 835 0
838 836 -835 0
-839 827 -770 0
-839 -827 770 0
839 827 770 0
839 -827 -770 0
-840 15 0
-840 26 0
840 -15 -26 0
-841 839 0
-841 840 0
841 -839 -840 0
-842 -840 -839 0
-842 840 839 0
842 -840 839 0
842 840 -839 0
-843 825 -774 0
-843 -825 774 0
843 825 774 0
843 -825 -774 0
-844 15 0
-844 25 0
844 -15 -25 0
-845 843 0
-845 844 0
845 -843 -844 0
-846 -844 -843 0
-846 844 843 0
846 -844 843 0
846 844 -843 0
-847 823 -778 0
-847 -823 778 0
847 823 778 0
847 -823 -778 0
-848 15 0
-848 24 0
848 -15 -24 0
-849 847 0
-849 848 0
849 -847 -848 0
-850 -848 -847 0
-850 848 847 0
850 -848 847 0
850 848 -847 0
-851 821 -782 0
-851 -821 782 0
851 821 782 0
851 -821 -782 0
-852 15 0
-852 23 0
852 -15 -23 0
-853 851 0
-853 852 0
853 -851 -852 0
-854 -852 -851 0
-854 852 851 0
854 -852 851 0
854 852 -851 0
-855 819 -786 0
-855 -819 786 0
855 819 786 0
855 -819 -786 0
-856 15 0
-856 22 0
856 -15 -22 0
-857 855 0
-857 856 0
857 -855 -856 0
-858 -856 -855 0
-858 856 855 0
858 -856 855 0
858 856 -855 0
-859 817 -790 0
-859 -817 790 0
859 817 790 0
859 -817 -790 0
-860 15 0
-860 21 0
860 -15 -21 0
-861 859 0
-861 860 0
861 -859 -860 0
-862 -860 -859 0
-862 860 859 0
862 -860 859 0
862 860 -859 0
-863 815 -794 0
-863 -815 794 0
863 815 794 0
863 -815 -794 0
-864 15 0
-864 20 0
864 -15 -20 0
-865 863 0
-865 864 0
865 -863 -864 0
-866 -864 -863 0
-866 864 863 0
866 -864 863 0
866 864 -863 0
-867 813 -798 0
-867 -813 798 0
867 813 798 0
867 -813 -798 0
-868 15 0
-868 19 0
868 -15 -19 0
-869 867 0
-869 868 0
869 -867 -868 0
-870 -868 -867 0
-870 868 867 0
870 -868 867 0
870 868 -867 0
-871 811 -802 0
-871 -811 802 0
871 811 802 0
871 -811 -802 0
-872 5 0
-872 15 0
872 -5 -15 0
-873 871 0
-873 872 0
873 -871 -872 0
-874 -872 -871 0
-874 872 871 0
874 -872 871 0
874 872 -871 0
-875 -809 -806 0
-875 809 806 0
875 -809 806 0
875 809 -806 0
-876 3 0
-876 15 0
876 -3 -15 0
-877 875 0
-877 876 0
877 -875 -876 0
-878 874 0
-878 877 0
878 -874 -877 0
-879 -873 0
-879 -878 0
879 873 878 0
-880 870 0
-880 -879 0
880 -870 879 0
-881 -869 0
-881 -880 0
881 869 880 0
-882 866 0
-882 -881 0
882 -866 881 0
-883 -865 0
-883 -882 0
883 865 882 0
-884 862 0
-884 -883 0
884 -862 883 0
-885 -861 0
-885 -884 0
885 861 884 0
-886 858 0
-886 -885 0
886 -858 885 0
-887 -857 0
-887 -886 0
887 857 886 0
-888 854 0
-888 -887 0
888 -854 887 0
-889 -853 0
-889 -888 0
889 853 888 0
-890 850 0
-890 -889 0
890 -850 889 0
-891 -849 0
-891 -890 0
891 849 890 0
-892 846 0
-892 -891 0
892 -846 891 0
-893 -845 0
-893 -892 0
893 845 892 0
-894 842 0
-894 -893 0
894 -842 893 0
-895 -841 0
-895 -894 0
895 841 894 0
-896 838 0
-896 -895 0
896 -838 895 0
-897 -837 0
-897 -896 0
897 837 896 0
-898 897 -834 0
-898 -897 834 0
898 897 834 0
898 -897 -834 0
-899 14 0
-899 27 0
899 -14 -27 0
-900 -899 -898 0
-900 899 898 0
900 -899 898 0
900 899 -898 0
-901 895 -838 0
-901 -895 838 0
901 895 838 0
901 -895 -838 0
-902 14 0
-902 26 0
902 -14 -26 0
-903 901 0
-903 902 0
903 -901 -902 0
-904 -902 -901 0
-904 902 901 0
904 -902 901 0
904 902 -901 0
-905 893 -842 0
-905 -893 842 0
905 893 842 0
905 -893 -842 0
-906 14 0
-906 25 0
906 -14 -25 0
-907 905 0
-907 906 0
907 -905 -906 0
-908 -906 -905 0
-908 906 905 0
908 -906 905 0
908 906 -905 0
-909 891 -846 0
-909 -891 846 0
909 891 846 0
909 -891 -846 0
-910 14 0
-910 24 0
910 -14 -24 0
-911 909 0
-911 910 0
911 -909 -910 0
-912 -910 -909 0
-912 910 909 0
912 -910 909 0
912 910 -909 0
-913 889 -850 0
-913 -889 850 0
913 889 850 0
913 -889 -850 0
-914 14 0
-914 23 0
914 -14 -23 0
-915 913 0
-915 914 0
915 -913 -914 0
-916 -914 -913 0
-916 914 913 0
916 -914 913 0
916 914 -913 0
-917 887 -854 0
-917 -887 854 0
917 887 854 0
917 -887 -854 0
-918 14 0
-918 22 0
918 -14 -22 0
-919 917 0
-919 918 0
919 -917 -918 0
-920 -918 -917 0
-920 918 917 0
920 -918 917 0
920 918 -917 0
-921 885 -858 0
-921 -885 858 0
921 885 858 0
921 -885 -858 0
-922 14 0
-922 21 0
922 -14 -21 0
-923 921 0
-923 922 0
923 -921 -922 0
-924 -922 -921 0
-924 922 921 0
924 -922 921 0
924 922 -921 0
-925 883 -862 0
-925 -883 862 0
925 883 862 0
925 -883 -862 0
-926 14 0
-926 20 0
926 -14 -20 0
-927 925 0
-927 926 0
927 -925 -926 0
-928 -926 -925 0
-928 926 925 0
928 -926 925 0
928 926 -925 0
-929 881 -866 0
-929 -881 866 0
929 881 866 0
929 -881 -866 0
-930 14 0
-930 19 0
930 -14 -19 0
-931 929 0
-931 930 0
931 -929 -930 0
-932 -930 -929 0
-932 930 929 0
932 -930 929 0
932 930 -929 0
-933 879 -870 0
-933 -879 870 0
933 879 870 0
933 -879 -870 0
-934 5 0
-934 14 0
934 -5 -14 0
-935 933 0
-935 934 0
935 -933 -934 0
-936 -934 -933 0
-936 934 933 0
936 -934 933 0
936 934 -933 0
-937 -877 -874 0
-937 877 874 0
937 -877 874 0
937 877 -874 0
-938 3 0
-938 14 0
938 -3 -14 0
-939 937 0
-939 938 0
939 -937 -938 0
-940 936 0
-940 939 0
940 -936 -939 0
-941 -935 0
-941 -940 0
941 935 940 0
-942 932 0
-942 -941 0
942 -932 941 0
-943 -931 0
-943 -942 0
943 931 942 0
-944 928 0
-944 -943 0
944 -928 943 0
-945 -927 0
-945 -944 0
945 927 944 0
-946 924 0
-946 -945 0
946 -924 945 0
-947 -923 0
-947 -946 0
947 923 946 0
-948 920 0
-948 -947 0
948 -920 947 0
-949 -919 0
-949 -948 0
949 919 948 0
-950 916 0
-950 -949 0
950 -916 949 0
-951 -915 0
-951 -950 0
951 915 950 0
-952 912 0
-952 -951 0
952 -912 951 0
-953 -911 0
-953 -952 0
953 911 952 0
-954 908 0
-954 -953 0
954 -908 953 0
-955 -907 0
-955 -954 0
955 907 954 0
-956 904 0
-956 -955 0
956 -904 955 0
-957 -903 0
-957 -956 0
957 903 956 0
-958 957 -900 0
-958 -957 900 0
958 957 900 0
958 -957 -900 0
-959 13 0
-959 26 0
959 -13 -26 0
-960 -959 -958 0
-960 959 958 0
960 -959 958 0
960 959 -958 0
-961 955 -904 0
-961 -955 904 0
961 955 904 0
961 -955 -904 0
-962 13 0
-962 25 0
962 -13 -25 0
-963 961 0
-963 962 0
963 -961 -962 0
-964 -962 -961 0
-964 962 961 0
964 -962 961 0
964 962 -961 0
-965 953 -908 0
-965 -953 908 0
965 953 908 0
965 -953 -908 0
-966 13 0
-966 24 0
966 -13 -24 0
-967 965 0
-967 966 0
967 -965 -966 0
-968 -966 -965 0
-968 966 965 0
968 -966 965 0
968 966 -965 0
-969 951 -912 0
-969 -951 912 0
969 951 912 0
969 -951 -912 0
-970 13 0
-970 23 0
970 -13 -23 0
-971 969 0
-971 970 0
971 -969 -970 0
-972 -970 -969 0
-972 970 969 0
972 -970 969 0
972 970 -969 0
-973 949 -916 0
-973 -949 916 0
973 949 916 0
973 -949 -916 0
-974 13 0
-974 22 0
974 -13 -22 0
-975 973 0
-975 974 0
975 -973 -974 0
-976 -974 -973 0
-976 974 973 0
976 -974 973 0
976 974 -973 0
-977 947 -920 0
-977 -947 920 0
977 947 920 0
977 -947 -920 0
-978 13 0
-978 21 0
978 -13 -21 0
-979 977 0
-979 978 0
979 -977 -978 0
-980 -978 -977 0
-980 978 977 0
980 -978 977 0
980 978 -977 0
-981 945 -924 0
-981 -945 924 0
981 945 924 0
981 -945 -924 0
-982 13 0
-982 20 0
982 -13 -20 0
-983 981 0
-983 982 0
983 -981 -982 0
-984 -982 -981 0
-984 982 981 0
984 -982 981 0
984 982 -981 0
-985 943 -928 0
-985 -943 928 0
985 943 928 0
985 -943 -928 0
-986 13 0
-986 19 0
986 -13 -19 0
-987 985 0
-987 986 0
987 -985 -986 0
-988 -986 -985 0
-988 986 985 0
988 -986 985 0
988 986 -985 0
-989 941 -932 0
-989 -941 932 0
989 941 932 0
989 -941 -932 0
-990 5 0
-990 13 0
990 -5 -13 0
-991 989 0
-991 990 0
991 -989 -990 0
-992 -990 -989 0
-992 990 989 0
992 -990 989 0
992 990 -989 0
-993 -939 -936 0
-993 939 936 0
993 -939 936 0
993 939 -936 0
-994 3 0
-994 13 0
994 -3 -13 0
-995 993 0
-995 994 0
995 -993 -994 0
-996 992 0
-996 995 0
996 -992 -995 0
-997 -991 0
-997 -996 0
997 991 996 0
-998 988 0
-998 -997 0
998 -988 997 0
-999 -987 0
-999 -998 0
999 987 998 0
-1000 984 0
-1000 -999 0
1000 -984 999 0
-1001 -983 0
-1001 -1000 0
1001 983 1000 0
-1002 980 0
-1002 -1001 0
1002 -980 1001 0
-1003 -979 0
-1003 -1002 0
1003 979 1002 0
-1004 976 0
-1004 -1003 0
1004 -976 1003 0
-1005 -975 0
-1005 -1004 0
1005 975 1004 0
-1006 972 0
-1006 -1005 0
1006 -972 1005 0
-1007 -971 0
-1007 -1006 0
1007 971 1006 0
-1008 968 0
-1008 -1007 0
1008 -968 1007 0
-1009 -967 0
-1009 -1008 0
1009 967 1008 0
-1010 964 0
-1010 -1009 0
1010 -964 1009 0
-1011 -963 0
-1011 -1010 0
1011 963 1010 0
-1012 1011 -960 0
-1012 -1011 960 0
1012 1011 960 0
1012 -1011 -960 0
-1013 12 0
-1013 25 0
1013 -12 -25 0
-1014 -1013 -1012 0
-1014 1013 1012 0
1014 -1013 1012 0
1014 1013 -1012 0
-1015 1009 -964 0
-1015 -1009 964 0
1015 1009 964 0
1015 -1009 -964 0
-1016 12 0
-1016 24 0
1016 -12 -24 0
-1017 1015 0
-1017 1016 0
1017 -1015 -1016 0
-1018 -1016 -1015 0
-1018 1016 1015 0
1018 -1016 1015 0
1018 1016 -1015 0
-1019 1007 -968 0
-1019 -1007 968 0
1019 1007 968 0
1019 -1007 -968 0
-1020 12 0
-1020 23 0
1020 -12 -23 0
-1021 1019 0
-1021 1020 0
1021 -1019 -1020 0
-1022 -1020 -1019 0
-1022 1020 1019 0
1022 -1020 1019 0
1022 1020 -1019 0
-1023 1005 -972 0
-1023 -1005 972 0
1023 1005 972 0
1023 -1005 -972 0
-1024 12 0
-1024 22 0
1024 -12 -22 0
-1025 1023 0
-1025 1024 0
1025 -1023 -1024 0
-1026 -1024 -1023 0
-1026 1024 1023 0
1026 -1024 1023 0
1026 1024 -1023 0
-1027 1003 -976 0
-1027 -1003 976 0
1027 1003 976 0
1027 -1003 -976 0
-1028 12 0
-1028 21 0
1028 -12 -21 0
-1029 1027 0
-1029 1028 0
1029 -1027 -1028 0
-1030 -1028 -1027 0
-1030 1028 1027 0
1030 -1028 1027 0
1030 1028 -1027 0
-1031 1001 -980 0
-1031 -1001 980 0
1031 1001 980 0
1031 -1001 -980 0
-1032 12 0
-1032 20 0
1032 -12 -20 0
-1033 1031 0
-1033 1032 0
1033 -1031 -1032 0
-1034 -1032 -1031 0
-1034 1032 1031 0
1034 -1032 1031 0
1034 1032 -1031 0
-1035 999 -984 0
-1035 -999 984 0
1035 999 984 0
1035 -999 -984 0
-1036 12 0
-1036 19 0
1036 -12 -19 0
-1037 1035 0
-1037 1036 0
1037 -1035 -1036 0
-1038 -1036 -1035 0
-1038 1036 1035 0
1038 -1036 1035 0
1038 1036 -1035 0
-1039 997 -988 0
-1039 -997 988 0
1039 997 988 0
1039 -997 -988 0
-1040 5 0
-1040 12 0
1040 -5 -12 0
-1041 1039 0
-1041 1040 0
1041 -1039 -1040 0
-1042 -1040 -1039 0
-1042 1040 1039 0
1042 -1040 1039 0
1042 1040 -1039 0
-1043 -995 -992 0
-1043 995 992 0
1043 -995 992 0
1043 995 -992 0
-1044 3 0
-1044 12 0
1044 -3 -12 0
-1045 1043 0
-1045 1044 0
1045 -1043 -1044 0
-1046 1042 0
-1046 1045 0
1046 -1042 -1045 0
-1047 -1041 0
-1047 -1046 0
1047 1041 1046 0
-1048 1038 0
-1048 -1047 0
1048 -1038 1047 0
-1049 -1037 0
-1049 -1048 0
1049 1037 1048 0
-1050 1034 0
-1050 -1049 0
1050 -1034 1049 0
-1051 -1033 0
-1051 -1050 0
1051 1033 1050 0
-1052 1030 0
-1052 -1051 0
1052 -1030 1051 0
-1053 -1029 0
-1053 -1052 0
1053 1029 1052 0
-1054 1026 0
-1054 -1053 0
1054 -1026 1053 0
-1055 -1025 0
-1055 -1054 0
1055 1025 1054 0
-1056 1022 0
-1056 -1055 0
1056 -1022 1055 0
-1057 -1021 0
-1057 -1056 0
1057 1021 1056 0
-1058 1018 0
-1058 -1057 0
1058 -1018 1057 0
-1059 -1017 0
-1059 -1058 0
1059 1017 1058 0
-1060 1059 -1014 0
-1060 -1059 1014 0
1060 1059 1014 0
1060 -1059 -1014 0
-1061 11 0
-1061 24 0
1061 -11 -24 0
-1062 -1061 -1060 0
-1062 1061 1060 0
1062 -1061 1060 0
1062 1061 -1060 0
-1063 1057 -1018 0
-1063 -1057 1018 0
1063 1057 1018 0
1063 -1057 -1018 0
-1064 11 0
-1064 23 0
1064 -11 -23 0
-1065 1063 0
-1065 1064 0
1065 -1063 -1064 0
-1066 -1064 -1063 0
-1066 1064 1063 0
1066 -1064 1063 0
1066 1064 -1063 0
-1067 1055 -1022 0
-1067 -1055 1022 0
1067 1055 1022 0
1067 -1055 -1022 0
-1068 11 0
-1068 22 0
1068 -11 -22 0
-1069 1067 0
-1069 1068 0
1069 -1067 -1068 0
-1070 -1068 -1067 0
-1070 1068 1067 0
1070 -1068 1067 0
1070 1068 -1067 0
-1071 1053 -1026 0
-1071 -1053 1026 0
1071 1053 1026 0
1071 -1053 -1026 0
-1072 11 0
-1072 21 0
1072 -11 -21 0
-1073 1071 0
-1073 1072 0
1073 -1071 -1072 0
-1074 -1072 -1071 0
-1074 1072 1071 0
1074 -1072 1071 0
1074 1072 -1071 0
-1075 1051 -1030 0
-1075 -1051 1030 0
1075 1051 1030 0
1075 -1051 -1030 0
-1076 11 0
-1076 20 0
1076 -11 -20 0
-1077 1075 0
-1077 1076 0
1077 -1075 -1076 0
-1078 -1076 -1075 0
-1078 1076 1075 0
1078 -1076 1075 0
1078 1076 -1075 0
-1079 1049 -1034 0
-1079 -1049 1034 0
1079 1049 1034 0
1079 -1049 -1034 0
-1080 11 0
-1080 19 0
1080 -11 -19 0
-1081 1079 0
-1081 1080 0
1081 -1079 -1080 0
-1082 -1080 -1079 0
-1082 1080 1079 0
1082 -1080 1079 0
1082 1080 -1079 0
-1083 1047 -1038 0
-1083 -1047 1038 0
1083 1047 1038 0
1083 -1047 -1038 0
-1084 5 0
-1084 11 0
1084 -5 -11 0
-1085 1083 0
-1085 1084 0
1085 -1083 -1084 0
-1086 -1084 -1083 0
-1086 1084 1083 0
1086 -1084 1083 0
1086 1084 -1083 0
-1087 -1045 -1042 0
-1087 1045 1042 0
1087 -1045 1042 0
1087 1045 -1042 0
-1088 3 0
-1088 11 0
1088 -3 -11 0
-1089 1087 0
-1089 1088 0
1089 -1087 -1088 0
-1090 1086 0
-1090 1089 0
1090 -1086 -1089 0
-1091 -1085 0
-1091 -1090 0
1091 1085 1090 0
-1092 1082 0
-1092 -1091 0
1092 -1082 1091 0
-1093 -1081 0
-1093 -1092 0
1093 1081 1092 0
-1094 1078 0
-1094 -1093 0
1094 -1078 1093 0
-1095 -1077 0
-1095 -1094 0
1095 1077 1094 0
-1096 1074 0
-1096 -1095 0
1096 -1074 1095 0
-1097 -1073 0
-1097 -1096 0
1097 1073 1096 0
-1098 1070 0
-1098 -1097 0
1098 -1070 1097 0
-1099 -1069 0
-1099 -1098 0
1099 1069 1098 0
-1100 1066 0
-1100 -1099 0
1100 -1066 1099 0
-1101 -1065 0
-1101 -1100 0
1101 1065 1100 0
-1102 1101 -1062 0
-1102 -1101 1062 0
1102 1101 1062 0
1102 -1101 -1062 0
-1103 10 0
-1103 23 0
1103 -10 -23 0
-1104 -1103 -1102 0
-1104 1103 1102 0
1104 -1103 1102 0
1104 1103 -1102 0
-1105 1099 -1066 0
-1105 -1099 1066 0
1105 1099 1066 0
1105 -1099 -1066 0
-1106 10 0
-1106 22 0
1106 -10 -22 0
-1107 1105 0
-1107 1106 0
1107 -1105 -1106 0
-1108 -1106 -1105 0
-1108 1106 1105 0
1108 -1106 1105 0
1108 1106 -1105 0
-1109 1097 -1070 0
-1109 -1097 1070 0
1109 1097 1070 0
1109 -1097 -1070 0
-1110 10 0
-1110 21 0
1110 -10 -21 0
-1111 1109 0
-1111 1110 0
1111 -1109 -1110 0
-1112 -1110 -1109 0
-1112 1110 1109 0
1112 -1110 1109 0
1112 1110 -1109 0
-1113 1095 -1074 0
-1113 -1095 1074 0
1113 1095 1074 0
1113 -1095 -1074 0
-1114 10 0
-1114 20 0
1114 -10 -20 0
-1115 1113 0
-1115 1114 0
1115 -1113 -1114 0
-1116 -1114 -1113 0
-1116 1114 1113 0
1116 -1114 1113 0
1116 1114 -1113 0
-1117 1093 -1078 0
-1117 -1093 1078 0
1117 1093 1078 0
1117 -1093 -1078 0
-1118 10 0
-1118 19 0
1118 -10 -19 0
-1119 1117 0
-1119 1118 0
1119 -1117 -1118 0
-1120 -1118 -1117 0
-1120 1118 1117 0
1120 -1118 1117 0
1120 1118 -1117 0
-1121 1091 -1082 0
-1121 -1091 1082 0
1121 1091 1082 0
1121 -1091 -1082 0
-1122 5 0
-1122 10 0
1122 -5 -10 0
-1123 1121 0
-1123 1122 0
1123 -1121 -1122 0
-1124 -1122 -1121 0
-1124 1122 1121 0
1124 -1122 1121 0
1124 1122 -1121 0
-1125 -1089 -1086 0
-1125 1089 1086 0
1125 -1089 1086 0
1125 1089 -1086 0
-1126 3 0
-1126 10 0
1126 -3 -10 0
-1127 1125 0
-1127 1126 0
1127 -1125 -1126 0
-1128 1124 0
-1128 1127 0
1128 -1124 -1127 0
-1129 -1123 0
-1129 -1128 0
1129 1123 1128 0
-1130 1120 0
-1130 -1129 0
1130 -1120 1129 0
-1131 -1119 0
-1131 -1130 0
1131 1119 1130 0
-1132 1116 0
-1132 -1131 0
1132 -1116 1131 0
-1133 -1115 0
-1133 -1132 0
1133 1115 1132 0
-1134 1112 0
-1134 -1133 0
1134 -1112 1133 0
-1135 -1111 0
-1135 -1134 0
1135 1111 1134 0
-1136 1108 0
-1136 -1135 0
1136 -1108 1135 0
-1137 -1107 0
-1137 -1136 0
1137 1107 1136 0
-1138 1137 -1104 0
-1138 -1137 1104 0
1138 1137 1104 0
1138 -1137 -1104 0
-1139 9 0
-1139 22 0
1139 -9 -22 0
-1140 -1139 -1138 0
-1140 1139 1138 0
1140 -1139 1138 0
1140 1139 -1138 0
-1141 1135 -1108 0
-1141 -1135 1108 0
1141 1135 1108 0
1141 -1135 -1108 0
-1142 9 0
-1142 21 0
1142 -9 -21 0
-1143 1141 0
-1143 1142 0
1143 -1141 -1142 0
-1144 -1142 -1141 0
-1144 1142 1141 0
1144 -1142 1141 0
1144 1142 -1141 0
-1145 1133 -1112 0
-1145 -1133 1112 0
1145 1133 1112 0
1145 -1133 -1112 0
-1146 9 0
-1146 20 0
1146 -9 -20 0
-1147 1145 0
-1147 1146 0
1147 -1145 -1146 0
-1148 -1146 -1145 0
-1148 1146 1145 0
1148 -1146 1145 0
1148 1146 -1145 0
-1149 1131 -1116 0
-1149 -1131 1116 0
1149 1131 1116 0
1149 -1131 -1116 0
-1150 9 0
-1150 19 0
1150 -9 -19 0
-1151 1149 0
-1151 1150 0
1151 -1149 -1150 0
-1152 -1150 -1149 0
-1152 1150 1149 0
1152 -1150 1149 0
1152 1150 -1149 0
-1153 1129 -1120 0
-1153 -1129 1120 0
1153 1129 1120 0
1153 -1129 -1120 0
-1154 5 0
-1154 9 0
1154 -5 -9 0
-1155 1153 0
-1155 1154 0
1155 -1153 -1154 0
-1156 -1154 -1153 0
-1156 1154 1153 0
1156 -1154 1153 0
1156 1154 -1153 0
-1157 -1127 -1124 0
-1157 1127 1124 0
1157 -1127 1124 0
1157 1127 -1124 0
-1158 3 0
-1158 9 0
1158 -3 -9 0
-1159 1157 0
-1159 1158 0
1159 -1157 -1158 0
-1160 1156 0
-1160 1159 0
1160 -1156 -1159 0
-1161 -1155 0
-1161 -1160 0
1161 1155 1160 0
-1162 1152 0
-1162 -1161 0
1162 -1152 1161 0
-1163 -1151 0
-1163 -1162 0
1163 1151 1162 0
-1164 1148 0
-1164 -1163 0
1164 -1148 1163 0
-1165 -1147 0
-1165 -1164 0
1165 1147 1164 0
-1166 1144 0
-1166 -1165 0
1166 -1144 1165 0
-1167 -1143 0
-1167 -1166 0
1167 1143 1166 0
-1168 1167 -1140 0
-1168 -1167 1140 0
1168 1167 1140 0
1168 -1167 -1140 0
-1169 8 0
-1169 21 0
1169 -8 -21 0
-1170 -1169 -1168 0
-1170 1169 1168 0
1170 -1169 1168 0
1170 1169 -1168 0
-1171 1165 -1144 0
-1171 -1165 1144 0
1171 1165 1144 0
1171 -1165 -1144 0
-1172 8 0
-1172 20 0
1172 -8 -20 0
-1173 1171 0
-1173 1172 0
1173 -1171 -1172 0
-1174 -1172 -1171 0
-1174 1172 1171 0
1174 -1172 1171 0
1174 1172 -1171 0
-1175 1163 -1148 0
-1175 -1163 1148 0
1175 1163 1148 0
1175 -1163 -1148 0
-1176 8 0
-1176 19 0
1176 -8 -19 0
-1177 1175 0
-1177 1176 0
1177 -1175 -1176 0
-1178 -1176 -1175 0
-1178 1176 1175 0
1178 -1176 1175 0
1178 1176 -1175 0
-1179 1161 -1152 0
-1179 -1161 1152 0
1179 1161 1152 0
1179 -1161 -1152 0
-1180 5 0
-1180 8 0
1180 -5 -8 0
-1181 1179 0
-1181 1180 0
1181 -1179 -1180 0
-1182 -1180 -1179 0
-1182 1180 1179 0
1182 -1180 1179 0
1182 1180 -1179 0
-1183 -1159 -1156 0
-1183 1159 1156 0
1183 -1159 1156 0
1183 1159 -1156 0
-1184 3 0
-1184 8 0
1184 -3 -8 0
-1185 1183 0
-1185 1184 0
1185 -1183 -1184 0
-1186 1182 0
-1186 1185 0
1186 -1182 -1185 0
-1187 -1181 0
-1187 -1186 0
1187 1181 1186 0
-1188 1178 0
-1188 -1187 0
1188 -1178 1187 0
-1189 -1177 0
-1189 -1188 0
1189 1177 1188 0
-1190 1174 0
-1190 -1189 0
1190 -1174 1189 0
-1191 -1173 0
-1191 -1190 0
1191 1173 1190 0
-1192 1191 -1170 0
-1192 -1191 1170 0
1192 1191 1170 0
1192 -1191 -1170 0
-1193 7 0
-1193 20 0
1193 -7 -20 0
-1194 -1193 -1192 0
-1194 1193 1192 0
1194 -1193 1192 0
1194 1193 -1192 0
-1195 1189 -1174 0
-1195 -1189 1174 0
1195 1189 1174 0
1195 -1189 -1174 0
-1196 7 0
-1196 19 0
1196 -7 -19 0
-1197 1195 0
-1197 1196 0
1197 -1195 -1196 0
-1198 -1196 -1195 0
-1198 1196 1195 0
1198 -1196 1195 0
1198 1196 -1195 0
-1199 1187 -1178 0
-1199 -1187 1178 0
1199 1187 1178 0
1199 -1187 -1178 0
-1200 5 0
-1200 7 0
1200 -5 -7 0
-1201 1199 0
-1201 1200 0
1201 -1199 -1200 0
-1202 -1200 -1199 0
-1202 1200 1199 0
1202 -1200 1199 0
1202 1200 -1199 0
-1203 -1185 -1182 0
-1203 1185 1182 0
1203 -1185 1182 0
1203 1185 -1182 0
-1204 3 0
-1204 7 0
1204 -3 -7 0
-1205 1203 0
-1205 1204 0
1205 -1203 -1204 0
-1206 1202 0
-1206 1205 0
1206 -1202 -1205 0
-1207 -1201 0
-1207 -1206 0
1207 1201 1206 0
-1208 1198 0
-1208 -1207 0
1208 -1198 1207 0
-1209 -1197 0
-1209 -1208 0
1209 1197 1208 0
-1210 1209 -1194 0
-1210 -1209 1194 0
1210 1209 1194 0
1210 -1209 -1194 0
-1211 6 0
-1211 19 0
1211 -6 -19 0
-1212 -1211 -1210 0
-1212 1211 1210 0
1212 -1211 1210 0
1212 1211 -1210 0
-1213 1207 -1198 0
-1213 -1207 1198 0
1213 1207 1198 0
1213 -1207 -1198 0
-1214 5 0
-1214 6 0
1214 -5 -6 0
-1215 1213 0
-1215 1214 0
1215 -1213 -1214 0
-1216 -1214 -1213 0
-1216 1214 1213 0
1216 -1214 1213 0
1216 1214 -1213 0
-1217 -1205 -1202 0
-1217 1205 1202 0
1217 -1205 1202 0
1217 1205 -1202 0
-1218 3 0
-1218 6 0
1218 -3 -6 0
-1219 1217 0
-1219 1218 0
1219 -1217 -1218 0
-1220 1216 0
-1220 1219 0
1220 -1216 -1219 0
-1221 -1215 0
-1221 -1220 0
1221 1215 1220 0
-1222 1221 -1212 0
-1222 -1221 1212 0
1222 1221 1212 0
1222 -1221 -1212 0
-1223 4 0
-1223 5 0
1223 -4 -5 0
-1224 -1223 -1222 0
-1224 1223 1222 0
1224 -1223 1222 0
1224 1223 -1222 0
-1225 -1219 -1216 0
-1225 1219 1216 0
1225 -1219 1216 0
1225 1219 -1216 0
-1226 3 0
-1226 4 0
1226 -3 -4 0
-1227 1225 0
-1227 1226 0
1227 -1225 -1226 0
-1228 -1227 -1224 0
-1228 1227 1224 0
1228 -1227 1224 0
1228 1227 -1224 0
-1229 2 0
-1229 3 0
1229 -2 -3 0
-1230 -1229 -1228 0
-1230 1229 1228 0
1230 -1229 1228 0
1230 1229 -1228 0
-1231 1230 -46 0
-1231 -1230 46 0
-1232 -1226 -1225 0
-1232 1226 1225 0
1232 -1226 1225 0
1232 1226 -1225 0
-1233 1232 -47 0
-1233 -1232 47 0
-1234 1231 0
-1234 1233 0
-1235 -1218 -1217 0
-1235 1218 1217 0
1235 -1218 1217 0
1235 1218 -1217 0
-1236 1235 -48 0
-1236 -1235 48 0
-1237 1234 0
-1237 1236 0
-1238 -1204 -1203 0
-1238 1204 1203 0
1238 -1204 1203 0
1238 1204 -1203 0
-1239 1238 -49 0
-1239 -1238 49 0
-1240 1237 0
-1240 1239 0
-1241 -1184 -1183 0
-1241 1184 1183 0
1241 -1184 1183 0
1241 1184 -1183 0
-1242 1241 -50 0
-1242 -1241 50 0
-1243 1240 0
-1243 1242 0
-1244 -1158 -1157 0
-1244 1158 1157 0
1244 -1158 1157 0
1244 1158 -1157 0
-1245 1244 -51 0
-1245 -1244 51 0
-1246 1243 0
-1246 1245 0
-1247 -1126 -1125 0
-1247 1126 1125 0
1247 -1126 1125 0
1247 1126 -1125 0
-1248 1247 -52 0
-1248 -1247 52 0
-1249 1246 0
-1249 1248 0
-1250 -1088 -1087 0
-1250 1088 1087 0
1250 -1088 1087 0
1250 1088 -1087 0
-1251 1250 -53 0
-1251 -1250 53 0
-1252 1249 0
-1252 1251 0
-1253 -1044 -1043 0
-1253 1044 1043 0
1253 -1044 1043 0
1253 1044 -1043 0
-1254 1253 -54 0
-1254 -1253 54 0
-1255 1252 0
-1255 1254 0
-1256 -994 -993 0
-1256 994 993 0
1256 -994 993 0
1256 994 -993 0
-1257 1256 -55 0
-1257 -1256 55 0
-1258 1255 0
-1258 1257 0
-1259 -938 -937 0
-1259 938 937 0
1259 -938 937 0
1259 938 -937 0
-1260 1259 -56 0
-1260 -1259 56 0
-1261 1258 0
-1261 1260 0
-1262 -876 -875 0
-1262 876 875 0
1262 -876 875 0
1262 876 -875 0
-1263 1262 -57 0
-1263 -1262 57 0
-1264 1261 0
-1264 1263 0
-1265 -808 -807 0
-1265 808 807 0
1265 -808 807 0
1265 808 -807 0
-1266 1265 -58 0
-1266 -1265 58 0
-1267 1264 0
-1267 1266 0
-1268 -734 -733 0
-1268 734 733 0
1268 -734 733 0
1268 734 -733 0
-1269 1268 -59 0
-1269 -1268 59 0
-1270 1267 0
-1270 1269 0
-1271 3 0
-1271 18 0
1271 -3 -18 0
-1272 1271 -60 0
-1272 -1271 60 0
-1273 1270 0
-1273 1272 0
-1274 681 0
-1274 1273 0
-1275 -89 0
-1275 1274 0
1275 0
